LAMMPS (23 Jun 2022)
OMP_NUM_THREADS environment is not set. Defaulting to 1 thread. (src/src/comm.cpp:98)
  using 1 OpenMP thread(s) per MPI task

variable 		movie equal 5000
variable		solvent equal 0.3  #0.2 is a good solvent, 0.5 is a bad solvent, 1.0 is no solvent/vacuum
variable		np_rad equal 25.0  #NP radius in Angstrom (= 0.1 nm)
variable                coor_del equal 4.0  # in order for a ligand to be considered to be bound, it must be within this radius of the edge of the NP VDW
variable 		E_bind equal 8.0  #ligand-NP binding energy in kcal/mol
variable		Lbox equal 150.0   #edge length of cubic simulation box
variable 		Nlig equal 600	   #number of ligands
variable		seed equal 314159
variable		trajsteps equal 5000000	 #number of timesteps (length of simulation)

units 			real
atom_style		molecular

region 			box block 0 ${Lbox} 0 ${Lbox} 0 ${Lbox} units box
region 			box block 0 150 0 ${Lbox} 0 ${Lbox} units box
region 			box block 0 150 0 150 0 ${Lbox} units box
region 			box block 0 150 0 150 0 150 units box
create_box		4 box bond/types 2 angle/types 1 extra/bond/per/atom 2 extra/angle/per/atom 1 extra/special/per/atom 3
Created orthogonal box = (0 0 0) to (150 150 150)
  2 by 3 by 3 MPI processor grid

molecule		lig ligand.mol
Read molecule template lig:
  1 molecules
  0 fragments
  5 atoms with max type 2
  4 bonds with max type 1
  3 angles with max type 1
  0 dihedrals with max type 0
  0 impropers with max type 0
#molecule		hex hexane.mol

mass            1 60 #C1, MARTINI bead representing a 4-carbon segment of an alkyl chain
mass            2 60 #N6d, MARTINI bead representing a NH2 amino group + a 2-carbon segment of an alkyl chain
mass            3 43 #SC2, MARTINI bead representing a 3-carbon segment of an alkyl chain. NOT USED IN THIS SIMULATION!
mass            4 500 #a spherical nanoparticle. the mass is not realistic.

# put NP in center
create_atoms	4 single $(v_Lbox/2) $(v_Lbox/2) $(v_Lbox/2) units box
create_atoms	4 single 75 $(v_Lbox/2) $(v_Lbox/2) units box
create_atoms	4 single 75 75 $(v_Lbox/2) units box
create_atoms	4 single 75 75 75 units box
Created 1 atoms
  using box units in orthogonal box = (0 0 0) to (150 150 150)
  create_atoms CPU = 0.000 seconds

# define region as everything outside a spherical center in sim. box. ASSUME SIM. BOX IS IMPLIED? doc seems to...
region			box_with_hole sphere $(v_Lbox/2) $(v_Lbox/2) $(v_Lbox/2) $(v_np_rad+5.0) side out units box
region			box_with_hole sphere 75 $(v_Lbox/2) $(v_Lbox/2) $(v_np_rad+5.0) side out units box
region			box_with_hole sphere 75 75 $(v_Lbox/2) $(v_np_rad+5.0) side out units box
region			box_with_hole sphere 75 75 75 $(v_np_rad+5.0) side out units box
region			box_with_hole sphere 75 75 75 30 side out units box

create_atoms	0 random ${Nlig} ${seed} box_with_hole mol lig 12345
create_atoms	0 random 600 ${seed} box_with_hole mol lig 12345
create_atoms	0 random 600 314159 box_with_hole mol lig 12345
Created 3000 atoms
  using lattice units in orthogonal box = (0 0 0) to (150 150 150)
  create_atoms CPU = 0.003 seconds

pair_style		lj/expand 12.0
pair_modify		shift yes

#pair_coeff		1 1 energy sigma delta cut

#ligand-ligand interactions
pair_coeff		1 1 $(v_solvent*0.810) 4.7 0 12
pair_coeff		1 1 0.24299999999999999378 4.7 0 12
pair_coeff		2 2 $(v_solvent*0.841) 4.7 0 12
pair_coeff		2 2 0.25229999999999996874 4.7 0 12
pair_coeff		1 2 $(v_solvent*0.667) 4.7 0 12
pair_coeff		1 2 0.20010000000000000009 4.7 0 12

#solvent-ligand interactions, NOT USED IN THIS SIMULATION
pair_coeff		3 3 0.562 4.1 0 12
pair_coeff		1 3 0.755 4.3 0 12
pair_coeff		2 3 0.554 4.3 0 12

#interactions involving the NP
pair_coeff  	1 4 0.100 4.0 $(v_np_rad-2.5) 12
pair_coeff  	1 4 0.100 4.0 22.5 12
pair_coeff  	3 4 0.100 4.0 $(v_np_rad-2.5) 12
pair_coeff  	3 4 0.100 4.0 22.5 12
pair_coeff		4 4 0.100 4.0 $(2*v_np_rad-4.0) 12
pair_coeff		4 4 0.100 4.0 46 12
pair_coeff   	2 4 ${E_bind} 4.0 $(v_np_rad-2.5) 12 #this interaction controls the binding strength of ligands to the NP core
pair_coeff   	2 4 8 4.0 $(v_np_rad-2.5) 12 
pair_coeff   	2 4 8 4.0 22.5 12 

bond_style  	harmonic
bond_coeff  	1 4.54 4.7 	#C1-C1
bond_coeff		2 5.98 4.05 #SC2-SC2, hexane

angle_style		cosine/squared
angle_coeff		1 4.1826 180

special_bonds 	lj 0 1 1
Finding 1-2 1-3 1-4 neighbors ...
  special bond factors lj:    0        1        1       
  special bond factors coul:  0        0        0       
     2 = max # of 1-2 neighbors
     2 = max # of 1-3 neighbors
     2 = max # of 1-4 neighbors
     7 = max # of special neighbors
  special bonds CPU = 0.001 seconds

group			ligands type 1 2
3000 atoms in group ligands


#EQULILIBRATION: getting rid of overlaps between particles using fix nve/limit ***************

fix 			1 ligands nve/limit 0.1
fix 			2 ligands langevin 300 300 1000 12345 #langevin thermostat

timestep		30

thermo 			5000

dump      		1 all custom ${movie} pos.lammpstrj type x y z
dump      		1 all custom 5000 pos.lammpstrj type x y z
dump_modify		1 sort id

run				10000
Generated 0 of 6 mixed pair_coeff terms from geometric mixing rule
Neighbor list info ...
  update every 1 steps, delay 10 steps, check yes
  max neighbors/atom: 2000, page size: 100000
  master list distance cutoff = 60
  ghost atom cutoff = 60
  binsize = 30, bins = 5 5 5
  1 neighbor lists, perpetual/occasional/extra = 1 0 0
  (1) pair lj/expand, perpetual
      attributes: half, newton on
      pair build: half/bin/newton
      stencil: half/bin/3d
      bin: standard
Per MPI rank memory allocation (min/avg/max) = 8.329 | 8.352 | 8.375 Mbytes
   Step          Temp          E_pair         E_mol          TotEng         Press     
         0   0              1.4578034e+13  3.7351619e-25  1.4578034e+13  1.1847026e+12
      5000   143.10783     -839.61171      631.28598      1071.4061     -1.3158128    
     10000   143.04161     -1072.4346      636.08806      842.7931      -3.6168918    
Loop time of 4.21135 on 18 procs for 10000 steps with 3001 atoms

Performance: 6154.789 ns/day, 0.004 hours/ns, 2374.533 timesteps/s
99.7% CPU use with 18 MPI tasks x 1 OpenMP threads

MPI task timing breakdown:
Section |  min time  |  avg time  |  max time  |%varavg| %total
---------------------------------------------------------------
Pair    | 0.16518    | 0.4083     | 0.57925    |  18.2 |  9.70
Bond    | 0.058762   | 0.10246    | 0.13218    |   5.7 |  2.43
Neigh   | 1.6438     | 1.6491     | 1.6538     |   0.2 | 39.16
Comm    | 1.6418     | 1.8572     | 2.1876     |  11.0 | 44.10
Output  | 0.0014476  | 0.0014575  | 0.0014792  |   0.0 |  0.03
Modify  | 0.078371   | 0.12546    | 0.15211    |   5.3 |  2.98
Other   |            | 0.06744    |            |       |  1.60

Nlocal:        166.722 ave         224 max          92 min
Histogram: 1 1 1 1 2 3 4 2 2 1
Nghost:        4837.67 ave        5095 max        4583 min
Histogram: 3 0 0 6 0 1 3 3 0 2
Neighs:        1617.83 ave        2586 max         440 min
Histogram: 1 0 4 2 1 2 2 2 2 2

Total # of neighbors = 29121
Ave neighs/atom = 9.7037654
Ave special neighs/atom = 3.5988004
Neighbor list builds = 909
Dangerous builds = 0

#PRODUCTION RUN ******************************************************************************

unfix 			1
fix 			1 ligands nve
undump			1
# define spherical region in center of sim. box
# region			center sphere $(v_Lbox/2) $(v_Lbox/2) $(v_Lbox/2) $(v_np_rad+5.0) units box
# delete atoms in the region
# delete_atoms	region center mol yes
# put NP in the hole
# create_atoms	4 single $(v_Lbox/2) $(v_Lbox/2) $(v_Lbox/2) units box

dump      		2 all custom ${movie} pos2.lammpstrj type x y z
dump      		2 all custom 5000 pos2.lammpstrj type x y z
dump_modify		2 sort id

group           nps     type 4
1 atoms in group nps
group           amines  type 2
600 atoms in group amines

# count coordination number of NP
compute coords nps coord/atom cutoff $(v_np_rad + v_coor_del) 2
compute coords nps coord/atom cutoff 29 2
dump 3 nps custom ${movie} coords.dmp c_coords
dump 3 nps custom 5000 coords.dmp c_coords
# equivalent calculation below
# compute coords nps coord/atom cutoff 28 group amines
# dump 4 nps custom ${movie} coords2.dmp type c_coords2

#second shell
compute coords2 nps coord/atom cutoff 35 2
dump 4 nps custom ${movie} coords2.dmp c_coords2
dump 4 nps custom 5000 coords2.dmp c_coords2


run				${trajsteps}
run				5000000
Generated 0 of 6 mixed pair_coeff terms from geometric mixing rule
Neighbor list info ...
  update every 1 steps, delay 10 steps, check yes
  max neighbors/atom: 2000, page size: 100000
  master list distance cutoff = 60
  ghost atom cutoff = 60
  binsize = 30, bins = 5 5 5
  3 neighbor lists, perpetual/occasional/extra = 1 2 0
  (1) pair lj/expand, perpetual
      attributes: half, newton on
      pair build: half/bin/newton
      stencil: half/bin/3d
      bin: standard
  (2) compute coord/atom, occasional
      attributes: full, newton on
      pair build: full/bin
      stencil: full/bin/3d
      bin: standard
  (3) compute coord/atom, occasional
      attributes: full, newton on
      pair build: full/bin
      stencil: full/bin/3d
      bin: standard
Per MPI rank memory allocation (min/avg/max) = 10.35 | 10.48 | 12.35 Mbytes
   Step          Temp          E_pair         E_mol          TotEng         Press     
     10000   143.04161     -1072.4346      636.08806      842.7931      -3.6168918    
     15000   296.01666     -800.04453      1290.4865      3137.5503      9.8555306    
     20000   297.26465     -966.31367      1298.3296      2990.2842      2.6111029    
     25000   300.55963     -1168.4446      1233.007       2752.296       4.5759549    
     30000   293.26151     -1306.3131      1283.0394      2599.1968      11.659123    
     35000   300.2704      -1405.0634      1242.6495      2522.7332     -1.2531721    
     40000   300.88596     -1568.8389      1264.443       2386.2558     -1.50608      
     45000   296.22494     -1683.0279      1260.8044      2226.7473      3.8686942    
     50000   301.06772     -1766.3516      1279.6756      2205.6011      10.079455    
     55000   300.958       -1860.7351      1276.6231      2107.1838      0.7428777    
     60000   300.64689     -1920.4905      1277.1204      2045.1436      9.9187955    
     65000   298.69908     -2101.3487      1249.6697      1819.4167     -9.9856162    
     70000   298.91121     -2174.713       1263.9673      1762.247       13.732403    
     75000   305.7882      -2247.1142      1265.9111      1753.2865     -6.7693397    
     80000   297.08787     -2292.0061      1286.8399      1651.5214      38.258846    
     85000   302.21274     -2364.9216      1244.2669      1581.8616      13.113299    
     90000   301.55338     -2402.0316      1259.4999      1554.0883      1.7893973    
     95000   296.7188      -2478.493       1215.1997      1390.0939      35.062696    
    100000   303.21976     -2535.0514      1224.8444      1401.3145      19.081146    
    105000   300.23148     -2578.6491      1267.6669      1373.8169      10.579093    
    110000   298.05569     -2601.9074      1281.5642      1344.9989     -11.42597     
    115000   303.28825     -2641.3878      1279.8372      1350.5834      2.9453435    
    120000   294.90007     -2704.9269      1264.0392      1196.2357      6.44813      
    125000   299.93659     -2744.8905      1213.8388      1151.1104      11.553318    
    130000   297.39506     -2726.8956      1245.0545      1177.5935      15.351826    
    135000   296.14263     -2735.358       1259.1981      1172.0749     -4.8217738    
    140000   292.33105     -2814.0221      1275.9695      1076.0973     -9.480964     
    145000   298.09941     -2836.0714      1257.3163      1086.978      -0.14590139   
    150000   300.8087      -2857.1937      1282.9504      1115.7174     -2.3859416    
    155000   296.61891     -2898.5027      1225.068       979.05928     -3.4350007    
    160000   293.88349     -2865.1683      1213.0393      975.90357     -1.7410007    
    165000   297.97473     -2878.7538      1281.8222      1067.6865      0.86553599   
    170000   306.19537     -2907.3328      1264.4421      1095.24        16.526137    
    175000   299.50834     -2915.2311      1291.7434      1054.8446      3.9096128    
    180000   295.96593     -2936.0706      1264.9982      975.58228     -7.1504936    
    185000   296.57721     -2941.7626      1242.2778      952.6362       9.7293334    
    190000   299.32282     -2911.477       1291.1616      1056.358      -9.3141708    
    195000   300.59107     -2977.3435      1279.6809      990.352       -2.1443586    
    200000   295.65898     -2984.7711      1265.9443      925.08294      0.95645915   
    205000   305.73053     -2980.1348      1215.4672      969.30627     -2.650502     
    210000   299.64351     -3061.5397      1236.0826      854.08406      30.270556    
    215000   294.39242     -3061.5214      1207.3902      778.45246     -24.809862    
    220000   299.47798     -3049.8024      1222.0579      850.31646      12.720465    
    225000   292.1185      -3055.8026      1240.0257      796.47248      28.08607     
    230000   296.05141     -3027.8114      1243.0892      862.69691      3.0499319    
    235000   292.40093     -3067.8632      1226.0665      772.97818      5.8972618    
    240000   298.55029     -3122.0028      1251.1248      798.88708     -7.6380184    
    245000   303.01485     -3182.6682      1207.9324      734.95326      10.397172    
    250000   306.5549      -3208.0907      1201.849       735.10404      13.070057    
    255000   298.92121     -3185.7214      1214.4853      701.84595      3.422213     
    260000   296.3128      -3197.4264      1243.2569      695.58698      18.969139    
    265000   294.46457     -3189.3211      1245.843       689.75074      5.1334583    
    270000   305.32183     -3167.6515      1223.9526      786.62023      16.212591    
    275000   306.78189     -3151.597       1226.3958      818.17444      10.177484    
    280000   296.66056     -3225.7264      1243.6997      670.83964     -8.3133169    
    285000   300.92983     -3237.8937      1184.9932      638.14354      6.902363     
    290000   311.26002     -3203.0788      1224.8448      805.18692      9.4377606    
    295000   294.81033     -3304.9231      1241.2509      572.64854      0.26457502   
    300000   299.22893     -3219.6425      1221.1739      677.3652       10.552213    
    305000   306.54595     -3266.6754      1225.9156      700.506       -12.466838    
    310000   298.46381     -3228.8281      1232.8827      673.04635     -21.145415    
    315000   298.58664     -3257.016       1254.6851      667.75931     -8.9163776    
    320000   305.94963     -3265.4494      1246.6941      717.17787      1.4968493    
    325000   294.55511     -3248.7898      1217.8942      603.14293      0.67898262   
    330000   290.8172      -3244.406       1242.8838      599.09032      2.5226278    
    335000   300.90297     -3212.6728      1235.5159      713.64685     -9.2564674    
    340000   306.56381     -3191.6615      1231.5372      781.30121     -2.4276595    
    345000   299.58604     -3188.7395      1236.2408      726.52851     -2.1988737    
    350000   297.9258      -3169.3528      1270.7655      765.59343      29.141432    
    355000   305.2781      -3165.8077      1219.6607      783.78108     -5.8291078    
    360000   298.66323     -3191.355       1194.1357      673.55581     -2.2962316    
    365000   301.38317     -3231.1519      1212.5192      676.46514     -21.302961    
    370000   298.6549      -3164.9967      1261.6339      767.33779     -15.216658    
    375000   301.18159     -3215.8333      1261.017       738.47909      12.448266    
    380000   304.08463     -3230.1186      1203.7116      692.84851     -5.5828033    
    385000   301.29593     -3217.3344      1208.9118      685.89515      3.5654088    
    390000   293.7075      -3270.0663      1283.4336      639.826        6.5295534    
    395000   304.48446     -3235.0823      1218.1617      705.91047      12.724118    
    400000   294.51858     -3236.8264      1245.6111      642.49655      0.18652995   
    405000   302.37667     -3245.508       1258.3658      716.84003     -3.0095847    
    410000   301.23664     -3228.0369      1253.2852      719.03593     -18.31465     
    415000   294.21321     -3251.1876      1219.0517      598.84512     -7.8236676    
    420000   297.07307     -3307.7659      1301.1499      649.93921     -1.8366125    
    425000   296.88439     -3238.9728      1229.4536      645.34862     -10.277107    
    430000   295.59021     -3277.7909      1210.7569      576.26081      20.61628     
    435000   296.53431     -3288.4676      1247.685       610.95472     -15.444015    
    440000   300.79917     -3328.2312      1243.9304      605.57472      13.029135    
    445000   297.05351     -3312.2121      1241.0967      585.2648      -18.084766    
    450000   301.84606     -3306.4907      1179.6194      572.36592      15.883884    
    455000   299.61454     -3330.587       1247.3927      596.08783      6.97779      
    460000   299.66375     -3338.3629      1217.4013      558.76058     -15.130741    
    465000   301.6759      -3354.6291      1219.3743      562.46086      10.976459    
    470000   303.53621     -3362.7579      1241.1826      592.77597      16.83273     
    475000   303.45449     -3386.0431      1218.1526      545.73016      25.071848    
    480000   296.65917     -3310.6929      1217.2525      559.4135      -2.1424107    
    485000   300.16916     -3270.0649      1226.8694      641.04624      7.078734     
    490000   302.14297     -3336.5487      1276.6795      642.02325      33.304671    
    495000   299.57845     -3333.2539      1218.6649      564.37037     -2.0166444    
    500000   305.14876     -3322.0792      1229.627       636.3193      -5.1166844    
    505000   302.01775     -3331.3564      1208.9505      578.36664     -22.405754    
    510000   299.20794     -3309.985       1222.5848      588.24582      8.5776634    
    515000   312.72727     -3349.9535      1229.3499      675.93825     -11.568955    
    520000   299.86389     -3347.756       1218.7774      552.53332     -9.8190769    
    525000   294.80291     -3406.4731      1251.2693      481.05057      10.362384    
    530000   306.43291     -3364.8483      1221.6955      597.10209     -17.300983    
    535000   298.81723     -3346.8885      1206.4538      531.71755     -3.8861139    
    540000   293.91833     -3404.8063      1246.2679      469.80575     -11.063761    
    545000   297.88578     -3361.1022      1260.5009      563.22146     -4.9607659    
    550000   295.71877     -3370.8818      1246.9022      520.46485      7.6922824    
    555000   298.29836     -3339.0122      1239.3602      567.86024      16.597561    
    560000   301.28629     -3320.0395      1252.2798      626.47193     -0.20525989   
    565000   293.01411     -3303.2653      1250.9476      567.94058      11.321603    
    570000   293.06281     -3282.3054      1225.7807      564.16906     -0.064877703  
    575000   302.77065     -3290.0868      1229.9725      647.39104     -22.664135    
    580000   302.62295     -3260.1875      1265.2272      711.22423      0.027431733  
    585000   302.04148     -3337.7924      1231.7141      594.90654     -12.332098    
    590000   300.02451     -3313.9838      1204.5204      573.48489     -4.2976379    
    595000   291.94367     -3290.581       1225.0328      545.13766     -3.151446     
    600000   306.35867     -3381.2782      1245.6049      603.91773     -2.5134142    
    605000   295.00615     -3330.9636      1230.1776      537.28585     -5.9390703    
    610000   298.98763     -3273.3199      1242.7947      643.15084      1.4875837    
    615000   304.66457     -3334.3447      1238.684       628.78098     -11.603733    
    620000   300.17978     -3340.0401      1247.4932      591.78976      9.504512     
    625000   291.70345     -3290.556       1237.5469      555.52868      1.3870508    
    630000   299.55927     -3347.9193      1219.6571      550.52561     -3.0416545    
    635000   297.16784     -3320.0022      1249.9702      587.37074     -5.2910497    
    640000   294.66755     -3313.9596      1255.1762      576.26055      17.896309    
    645000   297.28181     -3329.742       1220.1218      548.80163     -21.760351    
    650000   293.98313     -3352.538       1240.6904      517.07602     -44.640581    
    655000   304.90401     -3362.4117      1252.4566      616.62773      5.9298708    
    660000   301.90117     -3353.8533      1268.3024      614.17925     -5.6153199    
    665000   304.33985     -3283.4636      1252.8752      690.94943      18.599934    
    670000   299.10748     -3298.4931      1228.9424      605.19706     -14.518788    
    675000   299.42078     -3325.2182      1246.7255      599.05665      1.7770357    
    680000   301.14504     -3330.6288      1193.8119      556.15161     -17.700716    
    685000   300.03795     -3349.5496      1252.9763      586.4951      -7.6454486    
    690000   299.0962      -3294.4169      1219.8187      600.04871      6.580905     
    695000   297.18661     -3284.2928      1207.1855      580.46319      5.2781518    
    700000   299.19091     -3310.7024      1204.4553      569.24673      27.533049    
    705000   299.15589     -3272.9576      1236.7444      638.96743      19.895662    
    710000   303.14594     -3287.0042      1182.6644      606.52169     -8.2736896    
    715000   300.53059     -3279.3878      1201.0611      609.14714     -16.074795    
    720000   297.0013      -3318.7215      1211.212       548.40394      6.3085612    
    725000   307.24005     -3295.1509      1223.9807      676.30246     -6.5943772    
    730000   293.0191      -3258.9508      1205.9265      567.27859     -10.921466    
    735000   301.67594     -3223.2108      1169.7366      644.2418      -13.589196    
    740000   302.15461     -3185.3808      1210.7812      727.39684      15.703437    
    745000   301.28792     -3227.8226      1265.3033      731.72681      6.0026416    
    750000   300.43461     -3223.4415      1233.2525      696.42655      25.094038    
    755000   306.92044     -3237.1854      1241.2596      748.68888     -24.788244    
    760000   303.24147     -3258.8302      1243.3787      696.26409      14.399727    
    765000   299.95114     -3278.8122      1233.4139      636.89382      18.131437    
    770000   299.77307     -3267.2295      1235.9599      649.4301       4.0454403    
    775000   296.90035     -3230.1526      1226.0661      650.92416      17.766822    
    780000   292.96919     -3298.2799      1257.9564      579.53306     -4.3620148    
    785000   300.65485     -3239.3829      1216.9026      666.10473      17.059158    
    790000   302.98457     -3280.9295      1297.0301      725.51898     -2.3849626    
    795000   304.13509     -3320.7306      1242.4033      641.37948      3.3727025    
    800000   303.26757     -3328.2519      1238.9646      622.66181      12.885308    
    805000   299.71421     -3301.6823      1264.7922      643.28335      31.957009    
    810000   301.60254     -3276.4181      1186.9104      607.55197      7.7252047    
    815000   299.513       -3316.8418      1232.6882      594.22039      15.713644    
    820000   294.07247     -3295.7452      1186.6309      520.60821      2.7617833    
    825000   305.53352     -3295.8284      1251.1097      687.49352     -16.806023    
    830000   302.16442     -3307.568       1247.5615      642.07772      7.1290914    
    835000   306.04407     -3305.8208      1241.9185      672.87546     -10.864922    
    840000   312.12339     -3306.5066      1252.188       736.82303     -11.032758    
    845000   304.11005     -3288.8089      1220.5529      651.22689     -6.604763     
    850000   294.55558     -3305.4068      1245.0484      573.68433      8.068071     
    855000   295.48388     -3313.7266      1253.0488      581.66616      47.743893    
    860000   298.34074     -3294.3297      1240.4977      614.05915      1.1607713    
    865000   302.9407      -3266.546       1204.0365      646.51663      12.852704    
    870000   297.56345     -3276.3062      1221.8771      606.51126      10.881206    
    875000   296.97019     -3290.5917      1126.3637      491.4071       10.777057    
    880000   300.32641     -3305.8981      1225.0588      604.80869      5.4082624    
    885000   298.31138     -3308.8918      1224.7891      583.5259       17.560665    
    890000   299.38123     -3328.5042      1223.9723      572.66381     -2.3822612    
    895000   303.78292     -3281.457       1203.4426      638.54311      15.714716    
    900000   297.23402     -3316.1076      1237.5062      579.39304      2.7156081    
    905000   296.26583     -3291.5619      1228.0624      585.83701     -22.012435    
    910000   299.94514     -3282.6933      1224.4944      624.03965     -7.0704018    
    915000   302.91361     -3324.235       1249.1466      633.6954      -20.970204    
    920000   289.45588     -3337.7486      1266.4316      517.12199     -20.826679    
    925000   294.64087     -3306.8847      1239.0079      566.92864      14.096973    
    930000   304.75264     -3321.5534      1243.4075      647.08335      33.253029    
    935000   307.35226     -3328.2277      1247.1891      667.43761      0.21424503   
    940000   288.17592     -3322.1548      1234.0441      488.88236     -6.0461842    
    945000   300.72577     -3278.991       1211.6546      621.88277      27.032272    
    950000   306.03173     -3296.7049      1253.1529      693.11544      10.176072    
    955000   300.13688     -3338.5101      1267.1045      612.54759      16.61878     
    960000   294.77196     -3348.206       1228.5124      516.28405     -11.19047     
    965000   303.20687     -3353.1993      1251.9787      610.18567     -19.710977    
    970000   295.1806      -3353.9056      1204.4472      490.17344     -1.4110053    
    975000   300.88519     -3386.1391      1243.7494      548.25509     -1.5274633    
    980000   303.1101      -3332.5047      1202.5297      580.56589      2.809501     
    985000   306.14224     -3306.4203      1164.7428      595.97809      10.158338    
    990000   301.98613     -3317.8212      1198.303       580.9717       21.662812    
    995000   296.48314     -3276.4865      1239.2525      614.04573     -7.1280429    
   1000000   304.50334     -3252.6997      1213.8786      684.17867      24.819971    
   1005000   294.35467     -3347.9819      1210.6711      494.93519      6.0726303    
   1010000   295.34546     -3297.7378      1242.6573      586.02561      17.740759    
   1015000   305.15044     -3353.3724      1251.2741      626.6882      -10.57674     
   1020000   300.33015     -3306.8656      1247.0755      625.89136      20.082575    
   1025000   304.14766     -3336.7821      1199.8337      582.87089     -4.0147143    
   1030000   292.42006     -3320.7673      1191.4983      485.67701      1.7316367    
   1035000   299.55874     -3320.4636      1214.2583      572.57787     -0.95806228   
   1040000   300.30491     -3330.9241      1172.4775      527.00899     -1.1646371    
   1045000   292.84976     -3304.6485      1231.5918      545.73183      9.7456383    
   1050000   299.79267     -3356.2803      1248.2346      572.8293       0.59525073   
   1055000   293.62704     -3304.7932      1248.1258      569.07188      0.6290558    
   1060000   295.01152     -3271.3938      1183.0393      549.76546     -1.252552     
   1065000   301.94422     -3329.678       1215.8645      586.30159      6.1677793    
   1070000   298.3373      -3306.0252      1248.7451      610.58044      16.039604    
   1075000   312.76888     -3300.7907      1229.2083      725.33146     -7.7987803    
   1080000   297.19568     -3277.3556      1271.0133      651.30937     -4.9004203    
   1085000   301.63885     -3282.2789      1189.9147      605.02016      4.3506157    
   1090000   296.20066     -3311.6003      1258.9604      596.11384      23.318521    
   1095000   295.42336     -3328.3475      1279.7396      593.19483      2.6288244    
   1100000   300.19339     -3350.4191      1193.4943      527.53364     -7.5284432    
   1105000   300.48415     -3305.6135      1220.4015      601.84653      5.3143429    
   1110000   298.65512     -3310.1999      1262.8583      623.36099      19.921489    
   1115000   297.29385     -3273.451       1205.8098      590.88826     -1.299305     
   1120000   299.74209     -3301.4032      1232.8589      611.87846      7.6830041    
   1125000   295.00313     -3263.781       1267.6823      641.94616      16.316198    
   1130000   295.7263      -3310.3654      1165.8309      499.97729      5.6379682    
   1135000   295.80269     -3304.0503      1233.7488      574.89334      11.031604    
   1140000   294.54971     -3325.2297      1265.4029      574.1634      -14.314315    
   1145000   298.53968     -3267.3087      1227.6234      629.98494      11.913188    
   1150000   307.71934     -3305.2448      1234.1419      680.65587     -1.2986653    
   1155000   303.98463     -3349.8737      1258.1658      626.65346     -4.44273      
   1160000   288.02067     -3294.9183      1218.4118      499.09822     -14.527106    
   1165000   301.51969     -3319.995       1238.5314      614.85509      15.555685    
   1170000   300.94312     -3357.8971      1257.3157      590.58142      8.1244013    
   1175000   302.6319      -3376.7867      1222.5044      551.98236      5.2863935    
   1180000   298.76281     -3413.8007      1195.7156      453.58039     -6.7561577    
   1185000   299.97173     -3353.5253      1260.4291      589.38006      14.620278    
   1190000   294.53761     -3318.5876      1206.7842      522.07867      4.6622516    
   1195000   300.95982     -3333.9329      1218.3575      575.73677     -4.234457     
   1200000   294.31388     -3369.4935      1256.4296      518.81733      10.482469    
   1205000   306.91621     -3319.5628      1186.9977      612.0117      -14.207838    
   1210000   294.15205     -3286.8969      1225.0426      568.57981     -1.1087034    
   1215000   296.70887     -3303.5504      1251.9252      601.67307      23.625378    
   1220000   295.62481     -3355.3835      1302.9433      591.1641      -32.053686    
   1225000   296.86107     -3348.2029      1251.5444      558.00086     -23.178192    
   1230000   294.35587     -3364.8889      1273.416       540.7839      -1.4467081    
   1235000   290.47334     -3336.9457      1259.0893      519.68109      7.2600743    
   1240000   303.8137      -3377.8667      1288.3246      627.29068     -26.861509    
   1245000   298.87109     -3338.1288      1198.4889      532.99396     -0.8006386    
   1250000   306.70129     -3357.9484      1195.3539      580.06033      7.502007     
   1255000   301.47691     -3363.0908      1234.7427      567.5881       12.011078    
   1260000   294.17781     -3363.173       1218.6333      486.12473     -6.5255926    
   1265000   298.13668     -3347.8381      1222.7972      541.02557      18.840968    
   1270000   303.73751     -3411.6791      1176.5194      480.99171      13.787936    
   1275000   302.14061     -3389.1198      1248.8483      561.59982      4.0771423    
   1280000   300.09539     -3383.5798      1256.0548      556.0571      -0.82904604   
   1285000   308.64894     -3461.2896      1242.1538      540.93577      1.8897397    
   1290000   293.39533     -3440.9534      1188.424       371.13786      6.720426     
   1295000   306.69583     -3407.6227      1214.9457      549.92906      17.840123    
   1300000   299.6389      -3346.2357      1255.1931      588.4573       6.3804298    
   1305000   301.00352     -3375.114       1237.7094      554.29843      16.007303    
   1310000   305.08007     -3379.8557      1248.7936      597.09513      11.323727    
   1315000   304.73298     -3367.2849      1258.6048      616.37331      5.360036     
   1320000   305.05811     -3285.5151      1207.3511      649.79685     -5.9201547    
   1325000   297.62297     -3328.1715      1225.2512      558.55235     -12.702042    
   1330000   300.70476     -3397.7708      1245.4516      536.71205      11.875193    
   1335000   298.75523     -3373.8607      1215.7117      513.44879     -5.9619294    
   1340000   302.23468     -3364.0563      1200.7404      539.39664      8.9001213    
   1345000   299.25109     -3384.484       1199.277       490.82496      0.54313325   
   1350000   296.73921     -3372.73        1179.6451      460.48478     -18.358776    
   1355000   302.90503     -3382.3227      1286.2839      612.66829      17.856633    
   1360000   305.21712     -3379.4545      1247.3327      597.26103      14.134573    
   1365000   304.17741     -3410.2183      1237.6095      547.47639     -16.403263    
   1370000   306.58107     -3367.1159      1281.3657      655.82961     -18.318314    
   1375000   295.21404     -3386.1766      1207.4476      461.20198      8.0016963    
   1380000   300.38038     -3376.7372      1220.7951      530.18849      15.753758    
   1385000   296.85728     -3335.3778      1224.211       543.45866      20.399585    
   1390000   299.46796     -3351.56        1224.914       551.32535      8.5626215    
   1395000   298.03881     -3328.1925      1210.2152      547.21388     -0.63549311   
   1400000   300.8461      -3351.0155      1204.6711      543.95088      5.0797923    
   1405000   294.99151     -3289.5091      1252.2341      600.66597     -2.7583189    
   1410000   301.58437     -3350.1675      1255.4875      602.21718      8.5278955    
   1415000   293.23521     -3356.3353      1247.8156      513.71573     -1.3829965    
   1420000   300.64136     -3357.0838      1196.5061      527.88669      27.812038    
   1425000   299.4418      -3352.153       1231.558       557.14244      6.3513002    
   1430000   301.41762     -3367.0097      1228.9537      557.3501       18.835875    
   1435000   304.26846     -3425.4728      1244.8997      540.32634     -3.2922097    
   1440000   307.83433     -3391.6646      1215.1768      576.2992       3.3722427    
   1445000   296.06282     -3414.682       1181.9403      414.77946      14.878568    
   1450000   302.61933     -3384.455       1264.4288      586.12604     -20.148274    
   1455000   295.48868     -3385.4755      1235.7732      492.68462     -8.6648919    
   1460000   302.74458     -3328.6065      1263.7656      642.4313       7.3323411    
   1465000   302.36107     -3357.1635      1215.7505      562.42974      10.650352    
   1470000   297.77498     -3265.6414      1245.8205      643.01119      8.6738909    
   1475000   296.66661     -3238.2129      1235.0149      649.72244      4.0952981    
   1480000   293.92371     -3242.7672      1248.7536      634.37861      12.988185    
   1485000   298.9249      -3258.9059      1241.199       655.40824      8.0948992    
   1490000   288.34112     -3320.5009      1221.9792      479.94863      2.7897857    
   1495000   294.02358     -3338.4975      1205.8677      496.65544      20.508848    
   1500000   308.74775     -3341.3611      1218.1906      637.78471     -4.9201328    
   1505000   302.758       -3327.8314      1238.7795      618.34048      17.795243    
   1510000   297.71088     -3342.5206      1313.399       633.1371       7.531121     
   1515000   294.67024     -3379.5988      1252.857       508.32627     -2.7947117    
   1520000   304.31292     -3399.4         1234.3964      556.29337     -15.041078    
   1525000   300.17041     -3380.2096      1200.7438      504.78713      13.336403    
   1530000   308.02653     -3316.986       1211.8405      649.36024      10.559672    
   1535000   295.74196     -3340.7596      1243.5519      547.44419      3.4617128    
   1540000   301.69525     -3380.777       1227.2689      544.38062     -14.747533    
   1545000   305.36345     -3399.044       1198.3198      529.96721     -8.994652     
   1550000   292.94514     -3353.6742      1231.5148      497.48201      22.485935    
   1555000   307.795       -3368.8995      1212.6         596.13581      6.153766     
   1560000   300.06665     -3329.3051      1227.9126      581.93255      17.508867    
   1565000   310.58742     -3315.0811      1222.8394      685.16458     -2.3703599    
   1570000   301.16854     -3274.3737      1293.7399      712.54496     -3.6177164    
   1575000   304.00827     -3294.9404      1265.3927      689.02505      10.044241    
   1580000   302.07643     -3300.1805      1267.9087      669.02549     -0.97617458   
   1585000   298.93206     -3298.0351      1206.0943      581.23825     -8.4631653    
   1590000   302.69446     -3310.8357      1214.7437      610.7321      -15.874626    
   1595000   298.47044     -3260.282       1202.7743      611.5434       27.429471    
   1600000   298.53327     -3276.5916      1185.9534      578.97478     -23.577302    
   1605000   297.00428     -3289.5909      1268.1167      634.46585     -1.3526479    
   1610000   300.47388     -3205.503       1237.0157      718.47944      1.0493981    
   1615000   298.1445      -3203.6278      1216.2179      678.72641      4.9764848    
   1620000   296.72375     -3209.5705      1189.1732      633.03407      3.0705663    
   1625000   304.20967     -3239.4283      1214.3604      695.3059       0.71863017   
   1630000   306.22604     -3257.128       1274.6296      755.9066       13.596024    
   1635000   297.56206     -3279.8975      1240.685       621.71535      19.147665    
   1640000   296.25367     -3262.9125      1255.7544      642.06968      25.481363    
   1645000   311.01485     -3235.3416      1253.4841      799.37104      2.3908752    
   1650000   298.82823     -3225.893       1256.2184      702.57595      9.5707928    
   1655000   297.40816     -3231.0754      1266.3082      694.78452      3.6979471    
   1660000   296.65657     -3223.6222      1237.9819      667.19045      14.139197    
   1665000   301.8776      -3254.5153      1228.942       673.94609     -2.550591     
   1670000   298.30116     -3252.8087      1254.3361      669.06475     -2.2597276    
   1675000   302.74144     -3280.7389      1249.7307      676.23595     -0.52254206   
   1680000   302.55036     -3245.782       1255.0043      714.75772     -21.099601    
   1685000   298.77637     -3269.8746      1263.3178      665.23002     -5.885238     
   1690000   304.64076     -3256.6853      1241.0125      708.55593     -2.9556217    
   1695000   307.36684     -3236.2339      1248.8594      761.23196     -14.174017    
   1700000   302.25418     -3254.9732      1281.9928      729.90655     -10.69426     
   1705000   299.58718     -3263.1595      1273.1066      688.98452     -4.5465589    
   1710000   301.81966     -3297.7325      1217.4473      618.71595      2.2854067    
   1715000   305.03735     -3288.0304      1315.781       755.52575     -29.728554    
   1720000   293.00073     -3303.9462      1187.5698      503.76213     -12.336765    
   1725000   305.75993     -3289.3795      1226.4479      671.3052       7.4427028    
   1730000   298.64357     -3315.8885      1212.6786      567.38935     -0.21867746   
   1735000   301.88717     -3365.2907      1216.3086      550.62275     -14.466015    
   1740000   300.75198     -3357.2629      1260.9603      593.15098     -3.9676444    
   1745000   300.01622     -3343.739       1204.1106      543.24572      9.7729643    
   1750000   296.55845     -3369.0206      1213.7078      496.64044      8.2394514    
   1755000   295.91002     -3383.0489      1247.8571      510.96279      19.977596    
   1760000   293.76924     -3399.2279      1167.5772      395.36023      10.36612     
   1765000   298.39598     -3369.7384      1200.97        499.61683      7.0036578    
   1770000   297.18083     -3374.0089      1238.8519      522.36175      5.6521395    
   1775000   297.24573     -3425.1606      1193.0671      426.00577     -10.742012    
   1780000   297.14819     -3368.9002      1263.5598      551.88656      8.2337957    
   1785000   301.27363     -3388.2099      1235.6655      541.574        5.832923     
   1790000   304.60169     -3348.4125      1255.0921      630.55888      14.150633    
   1795000   297.52037     -3376.2132      1240.3396      524.68142      0.9671477    
   1800000   307.26231     -3359.9259      1236.5025      624.24838      14.626881    
   1805000   301.71683     -3389.1429      1249.105       558.04374      8.2332975    
   1810000   303.87583     -3391.6626      1204.8265      530.55223      32.996348    
   1815000   306.06856     -3412.4847      1243.0319      567.54395      4.840466     
   1820000   295.54124     -3397.7712      1163.7853      408.87095      17.287464    
   1825000   302.08442     -3427.1804      1186.651       460.83941      37.288383    
   1830000   293.32548     -3407.2365      1189.7725      405.57854      18.944686    
   1835000   297.41624     -3406.5532      1209.4824      462.55317      5.3695125    
   1840000   307.87168     -3425.9733      1198.6126      525.76032      5.1502607    
   1845000   293.75043     -3402.1073      1225.2653      450.00071     -12.725354    
   1850000   300.76436     -3367.1057      1241.7043      564.1629      -13.990425    
   1855000   310.0275      -3372.5874      1273.7369      673.54878      11.48848     
   1860000   295.97763     -3393.4818      1203.3274      456.60492      11.668962    
   1865000   303.82828     -3363.4818      1204.7803      558.26178      25.226252    
   1870000   300.1965      -3344.0946      1199.1245      539.51603     -0.43229863   
   1875000   305.12142     -3345.9891      1188.7792      571.31711      21.665161    
   1880000   304.32127     -3336.0294      1232.5247      617.86704     -19.74873     
   1885000   299.57537     -3287.0711      1251.8083      643.66902      5.0668378    
   1890000   305.01319     -3303.151       1188.2892      612.6973       11.714443    
   1895000   297.04873     -3324.3027      1269.7093      601.74407      29.361895    
   1900000   297.25823     -3306.4268      1197.8263      549.61052     -31.258018    
   1905000   298.81601     -3376.5617      1192.8976      488.47717      17.5254      
   1910000   307.68345     -3346.4908      1197.9273      602.87424      3.4801583    
   1915000   306.06038     -3320.9193      1231.1671      647.17136      0.66898754   
   1920000   300.55598     -3322.4232      1295.3447      660.62243     -18.991092    
   1925000   301.04804     -3297.8929      1249.5455      643.75359      12.518792    
   1930000   297.52938     -3366.474       1242.5311      536.6928      -0.79764608   
   1935000   296.70479     -3384.1691      1213.0741      482.16681     -24.940693    
   1940000   302.26444     -3344.5841      1222.7251      581.11965      2.8860219    
   1945000   300.70009     -3340.2459      1267.3012      616.04479      0.19266082   
   1950000   298.34612     -3347.6192      1276.1695      596.48967     -1.9362653    
   1955000   294.52822     -3330.6692      1226.1024      529.2312       6.1968151    
   1960000   294.25148     -3256.2765      1235.4287      610.47554     -10.041217    
   1965000   298.80072     -3345.9667      1241.7531      567.79101     -3.750993     
   1970000   300.43637     -3329.878       1245.4152      602.16838     -10.625661    
   1975000   295.06217     -3330.1691      1199.2325      507.63627      5.3509056    
   1980000   302.78585     -3337.1427      1198.446       568.94466      21.888753    
   1985000   292.95495     -3313.9519      1223.2003      528.9776       8.2969162    
   1990000   299.59792     -3365.1596      1266.6272      580.60113     -1.397423     
   1995000   301.41984     -3298.1914      1264.0846      661.31902     -3.8668275    
   2000000   299.37104     -3346.7502      1232.5035      562.85788     -16.460618    
   2005000   291.65109     -3356.769       1199.414       450.71445      0.82476191   
   2010000   289.49846     -3348.5414      1275.3114      515.58973     -9.4623943    
   2015000   294.93864     -3367.0251      1252.9115      523.35451     -6.2847488    
   2020000   300.83999     -3340.2301      1215.8141      565.82451     -2.7237929    
   2025000   296.49055     -3369.578       1209.2184      490.98641      16.709283    
   2030000   302.06479     -3329.3742      1267.5284      639.34754      14.407811    
   2035000   297.59735     -3316.3168      1227.2377      572.16441     -13.004817    
   2040000   298.76709     -3331.0096      1239.1631      579.8574      -22.255176    
   2045000   307.37506     -3343.1573      1190.4065      595.92919      12.16034     
   2050000   300.56938     -3357.9715      1221.157       551.00619     -10.59858     
   2055000   294.51275     -3329.3456      1265.0048      569.31888      12.380819    
   2060000   302.02833     -3318.7093      1252.3067      634.46464     -2.7828336    
   2065000   298.867       -3307.0209      1215.7314      581.30787      0.49790376   
   2070000   310.30802     -3294.4344      1187.5532      668.02665      3.9246171    
   2075000   303.22791     -3315.7326      1216.1515      612.0133      -13.315968    
   2080000   300.97365     -3308.8973      1249.3902      631.92876     -10.104233    
   2085000   294.34913     -3337.3347      1215.0966      509.95842      26.73723     
   2090000   299.2481      -3329.1253      1207.255       554.13497     -14.566106    
   2095000   301.59005     -3296.5629      1226.5603      626.94528     -13.424276    
   2100000   301.15714     -3277.0659      1222.9377      638.94853     -22.809036    
   2105000   302.36702     -3269.0226      1200.211       635.0843       6.4131658    
   2110000   300.71687     -3313.9712      1241.4924      616.66085     -6.6239923    
   2115000   299.49716     -3302.6018      1247.9851      623.61577      16.638155    
   2120000   307.33167     -3311.2694      1268.5328      705.55539     -18.483005    
   2125000   302.25232     -3327.8498      1236.5938      611.61431     -13.935731    
   2130000   295.75457     -3388.5915      1172.6464      428.81949     -3.5196422    
   2135000   299.4705      -3316.16        1234.0639      595.89789      0.037894468  
   2140000   302.65077     -3301.9695      1233.504       637.96791     -2.6794447    
   2145000   305.5281      -3286.7716      1251.5404      696.93247     -0.51760773   
   2150000   307.9218      -3294.3129      1221.816       681.07225      30.834743    
   2155000   292.72511     -3325.4104      1267.8124      560.07587     -17.551271    
   2160000   299.55483     -3310.5653      1199.6428      567.82562     -6.5451693    
   2165000   296.82458     -3292.908       1254.7784      616.20341     -1.6202937    
   2170000   312.38265     -3293.7354      1236.3125      736.03715      8.4245015    
   2175000   300.29152     -3297.0958      1216.0918      604.33188     -8.5413491    
   2180000   296.29706     -3312.9403      1252.748       589.42347      4.6014856    
   2185000   296.65688     -3341.6435      1286.6406      597.83056     -12.977911    
   2190000   297.78493     -3315.4929      1256.4805      603.90859     -13.780987    
   2195000   294.80413     -3386.2333      1214.7444      464.77647      39.207217    
   2200000   300.39923     -3404.619       1204.1287      485.80886      8.3038275    
   2205000   295.72918     -3425.012       1236.3993      455.92483      13.467826    
   2210000   298.94035     -3417.3458      1222.3191      478.22643     -5.2955932    
   2215000   296.28604     -3390.8269      1228.0719      486.7622      -29.564899    
   2220000   301.8382      -3363.8641      1219.5941      554.89706      6.1869063    
   2225000   298.81732     -3406.1843      1244.8369      510.8057      -15.282383    
   2230000   298.09442     -3415.2953      1203.1555      453.54879      14.463698    
   2235000   298.31023     -3405.1069      1229.1461      491.65761      11.954919    
   2240000   290.85101     -3420.9203      1213.3766      393.37121     -6.8845849    
   2245000   299.80552     -3445.1502      1214.4578      450.29752     -16.77562     
   2250000   299.61369     -3408.2974      1217.3068      488.28391      11.186892    
   2255000   291.75972     -3434.2187      1183.8878      358.71001      9.3302977    
   2260000   293.17083     -3409.6382      1219.0304      431.05188      7.2584017    
   2265000   306.99961     -3421.9626      1164.3481      487.70809      15.843646    
   2270000   303.352       -3437.3152      1189.2314      464.62025     -10.152739    
   2275000   298.91936     -3393.3014      1222.3407      502.10473      5.0951415    
   2280000   296.17876     -3381.421       1254.4083      521.54523      1.0270275    
   2285000   299.98507     -3380.7023      1243.9494      545.84276      8.8525918    
   2290000   307.77544     -3385.33        1225.5445      592.47485     -4.8874541    
   2295000   300.10337     -3335.9013      1257.0653      604.81746      0.16054709   
   2300000   305.30952     -3331.3488      1247.2316      646.09177      5.810099     
   2305000   301.05184     -3390.3674      1283.9801      585.74776     -7.2779685    
   2310000   305.96797     -3363.1871      1216.7033      589.6133      -16.397129    
   2315000   296.28403     -3358.2471      1234.8125      526.06468      14.655322    
   2320000   297.43603     -3368.7106      1203.1623      494.25268     -22.390258    
   2325000   301.43881     -3383.0634      1255.5492      568.0813       19.277675    
   2330000   299.58258     -3374.8153      1271.8457      576.02673     -8.9673964    
   2335000   298.73381     -3346.9913      1203.7233      528.13823      2.1989078    
   2340000   302.62448     -3365.4682      1263.3839      604.11394      9.2231501    
   2345000   304.36695     -3372.9018      1225.0264      573.90481      16.651408    
   2350000   295.34249     -3380.4133      1234.1813      494.84759      19.853404    
   2355000   304.14109     -3357.6804      1234.8239      596.90387      11.151783    
   2360000   296.84287     -3357.6375      1199.0852      495.94424      8.2689206    
   2365000   299.90005     -3362.2446      1260.2348      579.8255      -6.8326776    
   2370000   300.13927     -3348.854       1285.2571      620.3776       8.861665     
   2375000   292.95486     -3318.2385      1222.5465      524.03634     -12.227784    
   2380000   295.43272     -3327.5542      1228.7579      543.0902       19.716812    
   2385000   304.76545     -3346.0195      1211.5385      590.86278     -5.4624269    
   2390000   301.73549     -3324.852       1306.4397      679.83625     -9.5736499    
   2395000   300.88636     -3334.7557      1218.5276      574.42717      0.53635486   
   2400000   302.96811     -3399.7038      1243.1357      552.70305     -0.14882531   
   2405000   306.08037     -3371.1094      1258.2692      624.26217      8.4265073    
   2410000   303.50881     -3380.793       1174.0132      507.32649      8.3776966    
   2415000   297.51728     -3328.397       1222.4062      554.53664      14.919227    
   2420000   294.65026     -3374.504       1243.9561      504.34157     -16.904035    
   2425000   297.27679     -3355.3636      1210.941       513.95438      17.406094    
   2430000   298.94715     -3335.0413      1192.916       531.18868      28.546766    
   2435000   297.66404     -3341.2758      1244.7421      565.30617     -18.892196    
   2440000   295.14553     -3330.5105      1214.2386      523.04638      25.372275    
   2445000   297.36546     -3366.6351      1257.1168      549.65158     -11.617891    
   2450000   312.7815      -3310.8865      1212.7178      698.85806      11.462356    
   2455000   297.06799     -3371.7623      1217.5399      502.28741      6.0543131    
   2460000   298.10404     -3313.5546      1255.358       607.57806      6.7999577    
   2465000   299.78049     -3375.7378      1254.8092      559.83747     -11.798375    
   2470000   305.65873     -3347.7631      1205.7201      591.28885      14.247037    
   2475000   301.319       -3352.4155      1238.5992      580.70774     -1.0964751    
   2480000   296.53089     -3331.905       1200.0509      519.85263      10.065313    
   2485000   305.46793     -3369.3483      1197.2996      559.57687      27.09775     
   2490000   299.86291     -3351.4485      1229.5344      559.58899      11.343058    
   2495000   294.65465     -3340.3841      1249.5992      544.14372     -12.47725     
   2500000   296.92197     -3379.5746      1242.8057      518.43508      1.9916917    
   2505000   292.90395     -3362.7765      1248.1359      504.63256     -25.830469    
   2510000   296.02315     -3355.7087      1179.551       471.00864     -22.813655    
   2515000   294.09842     -3357.803       1223.7532      495.90477     -4.6438757    
   2520000   308.3258      -3366.9824      1214.6963      604.89588      14.515586    
   2525000   299.23316     -3313.3442      1286.4542      648.98175     -7.0564167    
   2530000   300.15402     -3328.0959      1251.9514      607.96184      23.191927    
   2535000   303.13375     -3299.3392      1221.269       632.68222     -3.9840957    
   2540000   300.88753     -3345.7757      1274.9968      619.88692      43.483935    
   2545000   294.75992     -3380.1109      1218.2402      473.99932      1.2043182    
   2550000   299.29923     -3356.5708      1226.7877      546.67925      28.01143     
   2555000   298.16516     -3356.7228      1229.3904      538.9887       1.2738619    
   2560000   304.62674     -3304.5587      1202.95        622.49453      2.0825614    
   2565000   305.92973     -3355.7175      1214.1171      594.15479     -12.81607     
   2570000   297.32131     -3344.2676      1247.8618      562.36924      36.958525    
   2575000   301.85088     -3336.2575      1224.9421      587.96507      30.843926    
   2580000   298.07327     -3306.4625      1172.8551      531.89204     -5.4241906    
   2585000   305.18723     -3312.4507      1180.1154      596.7802       29.461124    
   2590000   300.18588     -3321.4274      1217.2315      580.19543     -5.7519511    
   2595000   306.57176     -3354.2766      1241.7059      628.92578      4.1907964    
   2600000   301.23045     -3339.8678      1223.2379      577.10239      21.335614    
   2605000   304.26718     -3337.9739      1263.6974      646.61142      10.336855    
   2610000   303.50449     -3336.289       1272.445       650.22376      11.867327    
   2615000   300.77567     -3310.347       1190.8441      570.16258      17.058069    
   2620000   295.85611     -3323.8786      1202.85        524.64395      0.27100333   
   2625000   298.85316     -3337.3681      1219.7585      554.86381      14.311116    
   2630000   306.2288      -3322.1929      1251.6497      667.88642     -0.4183491    
   2635000   294.00333     -3315.4094      1208.5608      522.25563      19.93714     
   2640000   298.48015     -3362.3765      1251.4103      558.17163      28.464059    
   2645000   301.89473     -3365.3002      1261.3635      595.73584     -1.137128     
   2650000   293.70318     -3311.0106      1240.5547      555.96427      3.6952286    
   2655000   301.2923      -3311.5814      1215.2577      597.96158     -33.623989    
   2660000   297.8781      -3278.7831      1278.724       663.695       -11.528071    
   2665000   305.14938     -3312.4725      1235.6612      651.96577     -10.763904    
   2670000   304.42394     -3263.7428      1217.8873      676.43434      27.696395    
   2675000   302.94968     -3262.6358      1305.7041      752.17457     -10.126095    
   2680000   293.96977     -3251.1775      1251.3241      628.95072      19.601186    
   2685000   296.58575     -3267.4597      1247.3329      632.07058     -15.570559    
   2690000   291.38911     -3310.7467      1201.4         496.38008     -6.5840719    
   2695000   304.6953      -3340.3283      1217.1308      601.51886      10.605904    
   2700000   304.39853     -3365.0521      1231.8409      588.85145     -3.7329711    
   2705000   297.84216     -3327.6017      1203.1592      538.99024     -1.468769     
   2710000   302.25019     -3336.3283      1216.37        582.89289      17.274151    
   2715000   304.00339     -3352.4361      1248.3474      614.44043      19.843568    
   2720000   299.71657     -3358.623       1226.7671      548.33858     -2.2927836    
   2725000   305.83828     -3373.3335      1253.8968      615.50081      13.6132      
   2730000   304.26919     -3324.1852      1207.0708      603.79158     -3.7435992    
   2735000   297.36754     -3340.9148      1176.6256      494.89919      30.223274    
   2740000   303.43765     -3338.005       1244.293       619.75794      4.3901876    
   2745000   295.84088     -3305.0042      1188.3969      528.9291       13.393117    
   2750000   305.58781     -3293.3795      1224.1558      663.47386      7.3031501    
   2755000   295.76917     -3360.426       1200.7297      485.19874      13.159591    
   2760000   302.44549     -3341.4998      1198.9369      562.03481      6.3293518    
   2765000   303.49567     -3390.9773      1188.0209      511.03249     -6.2834287    
   2770000   304.66576     -3327.3866      1242.015       639.08063      11.586865    
   2775000   303.38935     -3366.0783      1254.4361      601.39591      11.173714    
   2780000   296.45046     -3349.4189      1196.5255      498.09409      10.215691    
   2785000   302.78484     -3316.8724      1313.8405      704.60027     -5.7973398    
   2790000   302.41238     -3372.3804      1247.4001      579.32125     -14.211499    
   2795000   294.43848     -3303.5846      1198.4697      527.88068     -21.679036    
   2800000   294.47005     -3270.7217      1260.3671      622.9232       13.571287    
   2805000   301.9478      -3330.1181      1222.3089      592.33792     -1.2982451    
   2810000   285.31295     -3323.5889      1271.1259      498.92818      4.2872023    
   2815000   299.06496     -3341.5958      1222.0737      554.84537     -22.450209    
   2820000   301.9122      -3334.0789      1275.1556      640.90545      14.972661    
   2825000   297.74442     -3328.9722      1215.4099      548.99642     -7.1396584    
   2830000   302.32139     -3310.1724      1272.7408      666.05633      26.814843    
   2835000   301.08827     -3331.2729      1250.761       611.94889      5.2224085    
   2840000   303.5666      -3332.0492      1200.6219      583.19581     -20.10584     
   2845000   300.33619     -3296.393       1296.3546      685.69698      10.797781    
   2850000   305.09704     -3292.5548      1230.4204      666.17462      12.518074    
   2855000   294.12508     -3277.4755      1210.7715      563.48904      7.0035887    
   2860000   299.25973     -3276.8542      1227.4272      626.6822      -13.696892    
   2865000   305.12263     -3285.0629      1202.7441      646.21902      26.158809    
   2870000   300.96875     -3258.727       1202.2667      634.93177     -13.29463     
   2875000   293.38675     -3273.7428      1244.6558      594.50352      3.4700048    
   2880000   305.01628     -3226.9534      1199.6626      700.29592      3.1805381    
   2885000   298.7639      -3201.5742      1168.7494      638.85062      1.6288629    
   2890000   296.41696     -3187.2352      1218.8815      682.33431     -17.960467    
   2895000   300.72331     -3203.3369      1197.8891      683.74933      17.878219    
   2900000   305.02394     -3210.7143      1240.1335      757.07452     -3.975556     
   2905000   301.36078     -3204.5563      1245.3747      735.71624     -12.586619    
   2910000   308.85832     -3262.5247      1197.837       697.25624      19.663999    
   2915000   299.13311     -3276.7122      1271.2903      669.55503      4.7598426    
   2920000   301.32241     -3289.1433      1244.9983      650.40963     -12.009525    
   2925000   299.20024     -3281.723       1299.2247      693.07888      13.709723    
   2930000   301.5208      -3297.002       1242.6301      641.95673     -5.2974954    
   2935000   299.84089     -3251.7825      1232.3392      661.86282     -24.183561    
   2940000   303.26036     -3257.5361      1241.4739      695.82238     -7.514761     
   2945000   297.86435     -3231.5654      1180.4881      612.55383      29.516376    
   2950000   293.42277     -3245.4108      1279.9653      658.46711      9.1981676    
   2955000   297.55258     -3313.4567      1226.4872      573.8737      -22.396885    
   2960000   296.23343     -3253.4107      1290.8334      686.46938     -21.234503    
   2965000   296.6883      -3291.0354      1205.6312      567.71019      26.271344    
   2970000   304.39966     -3302.9855      1281.0338      700.12106      3.3474561    
   2975000   304.46        -3315.3569      1222.4699      629.72531     -19.322873    
   2980000   303.95742     -3319.0798      1217.2299      616.26809      6.8262888    
   2985000   297.12492     -3313.6817      1231.8856      575.22269      28.340237    
   2990000   298.86453     -3315.105       1207.4371      564.90726     -2.8828128    
   2995000   299.03467     -3341.0535      1200.4824      533.52558      13.454898    
   3000000   302.0606      -3365.3144      1237.706       573.54736     -0.35461136   
   3005000   297.24135     -3359.0077      1286.6929      585.74525     -7.9758401    
   3010000   295.23942     -3392.8303      1186.8621      434.18963     -0.8682428    
   3015000   300.34366     -3352.5621      1243.8037      577.04377      3.8634869    
   3020000   305.45254     -3400.3443      1230.7506      561.89427      28.594355    
   3025000   296.1118      -3328.1551      1261.0752      580.87911      16.732981    
   3030000   294.75758     -3389.7519      1237.3376      483.43475      10.488117    
   3035000   295.5135      -3392.5398      1233.3194      483.38844     -3.9613682    
   3040000   297.0077      -3345.8367      1207.3895      517.52339     -0.11592821   
   3045000   300.71781     -3312.5356      1223.3688      599.98125     -0.57095483   
   3050000   304.42764     -3303.8964      1177.5705      595.99699      9.3190885    
   3055000   301.73198     -3334.3752      1254.9089      618.75088      12.586044    
   3060000   302.76979     -3290.2084      1288.1144      705.40366     -17.352225    
   3065000   295.73899     -3330.6412      1234.8652      548.84928      7.6144503    
   3070000   299.53063     -3331.2844      1222.8191      570.06649     -8.7268197    
   3075000   295.94767     -3366.1316      1228.3947      508.75437      15.598085    
   3080000   297.4384      -3337.5224      1264.4099      586.70957      13.595983    
   3085000   296.25754     -3294.2928      1205.4771      560.44659     -18.722317    
   3090000   297.96256     -3331.8976      1211.4337      544.0456      -5.0162303    
   3095000   299.25169     -3323.9883      1262.7314      614.78048     -2.7108181    
   3100000   305.52618     -3361.8711      1200.6574      570.93285      0.23539846   
   3105000   304.74062     -3345.8147      1203.0397      582.34666      3.4253915    
   3110000   300.00114     -3324.3512      1172.4021      530.7902       1.3194002    
   3115000   305.91417     -3371.6911      1258.5895      622.51446     -4.2447816    
   3120000   305.84086     -3391.6887      1181.0337      524.30554      6.7913298    
   3125000   297.52594     -3388.4662      1185.4449      457.58365     -12.795098    
   3130000   300.79958     -3385.9362      1208.2554      512.1985      -17.125914    
   3135000   296.36426     -3378.9922      1260.7142      531.93865      5.4026314    
   3140000   305.74043     -3344.3094      1172.9159      562.66893     -5.6235263    
   3145000   297.52957     -3314.4972      1232.3551      578.49536      13.255812    
   3150000   303.29362     -3369.8258      1257.7272      600.08338     -8.7938019    
   3155000   305.54952     -3352.0833      1212.7545      593.02643     -4.6148185    
   3160000   296.01092     -3407.3798      1293.5434      533.22061     -17.283952    
   3165000   298.23341     -3356.7929      1207.9516      518.09013      8.8126017    
   3170000   304.96136     -3373.8905      1229.501       582.70616      28.530416    
   3175000   296.98248     -3391.6225      1221.3939      485.51642      12.181274    
   3180000   297.24919     -3366.0719      1260.7073      552.76552     -13.424429    
   3185000   294.9089      -3354.1983      1236.5956      519.59959      6.3046357    
   3190000   295.05385     -3336.6282      1251.2713      553.1415       17.999574    
   3195000   306.98967     -3315.1741      1252.728       682.78759     -3.3485384    
   3200000   305.20855     -3320.7752      1271.9321      680.46303     -15.432075    
   3205000   299.48811     -3272.7002      1241.5887      647.03998      1.7122137    
   3210000   297.85434     -3313.3576      1231.2397      581.42376      2.6978446    
   3215000   296.67431     -3375.7383      1266.4988      543.74977      7.9870399    
   3220000   301.32174     -3337.6276      1219.3458      576.26675      10.650498    
   3225000   299.74159     -3377.4368      1252.222       555.20344     -14.477383    
   3230000   303.63632     -3349.4806      1226.0531      591.81909     -13.797796    
   3235000   298.96529     -3358.028       1223.408       538.85611     -12.669686    
   3240000   301.16985     -3329.4574      1281.2559      644.98883      12.03692     
   3245000   296.1215      -3371.68        1230.2938      506.65964      11.527399    
   3250000   299.56935     -3303.9726      1269.6205      644.52579      1.474683     
   3255000   307.29301     -3318.1162      1235.289       665.11912     -14.686651    
   3260000   296.07727     -3333.8648      1198.1292      511.91469      8.6050404    
   3265000   304.68538     -3343.3504      1233.6911      614.9684       2.9069453    
   3270000   295.10665     -3336.6499      1229.5456      531.8662       11.053716    
   3275000   300.36518     -3364.411       1211.8653      533.44893      3.1425872    
   3280000   299.35981     -3368.7486      1256.9992      565.25477      0.12133957   
   3285000   291.90566     -3331.5544      1213.922       492.71354      23.261344    
   3290000   304.14594     -3365.608       1240.9201      595.1158      -8.8543469    
   3295000   303.73884     -3387.8465      1223.7101      552.02694     -14.21527     
   3300000   300.30816     -3298.5989      1172.7622      559.64809     -2.346313     
   3305000   304.03759     -3360.8604      1249.756       607.73047      14.253573    
   3310000   298.41396     -3366.7474      1222.7521      524.55062      18.986392    
   3315000   306.22878     -3268.1574      1248.6149      718.88693      28.121752    
   3320000   296.29367     -3332.875       1210.5991      527.30967      7.5061842    
   3325000   300.05848     -3285.8419      1222.0145      619.42458      11.701882    
   3330000   300.80808     -3345.6241      1235.6536      579.98465      9.6625364    
   3335000   297.42908     -3315.8614      1170.2468      514.12425     -13.389789    
   3340000   296.91445     -3309.2786      1193.6135      539.47162     -8.5434983    
   3345000   299.92844     -3311.5001      1221.6945      592.28361     -0.82459673   
   3350000   295.36099     -3329.0901      1194.3815      506.53633      8.680117     
   3355000   297.77384     -3299.8606      1209.126       572.08722      14.991286    
   3360000   301.77043     -3286.2276      1225.7456      638.07894      25.257694    
   3365000   296.4477      -3299.4492      1271.4246      622.93822      12.279033    
   3370000   296.68951     -3302.284       1249.0241      599.86538     -4.8858527    
   3375000   301.94786     -3335.9364      1225.1097      589.32099     -21.292472    
   3380000   299.78686     -3277.2958      1245.8026      649.32993     -15.555135    
   3385000   296.66267     -3289.6145      1210.7347      574.00536      2.5518517    
   3390000   296.50541     -3333.9474      1218.5762      536.10767      23.444456    
   3395000   303.52771     -3307.6539      1221.3789      628.00033      7.922376     
   3400000   294.59234     -3341.7597      1264.4394      557.0511      -14.730582    
   3405000   303.01777     -3315.2115      1185.2014      579.70515      10.572694    
   3410000   296.00985     -3249.8465      1259.6372      656.83814      15.551492    
   3415000   305.30928     -3234.1085      1198.8699      694.9683      -3.1705165    
   3420000   294.41964     -3255.4791      1242.3433      619.69124     -10.426593    
   3425000   296.26238     -3229.42        1234.9931      654.8787      -0.3455799    
   3430000   299.54794     -3237.5024      1239.542       680.72613     -7.9980097    
   3435000   301.3209      -3259.8457      1242.6195      677.31488     -11.776116    
   3440000   297.63932     -3277.8617      1224.2994      608.05659      32.539999    
   3445000   300.00589     -3266.7005      1219.8022      635.8834      -16.234669    
   3450000   297.404       -3313.3344      1243.3949      589.57499     -7.9319265    
   3455000   300.45906     -3325.4091      1229.6878      591.11288      15.943866    
   3460000   300.16299     -3349.1922      1198.191       533.18534     -5.0431579    
   3465000   303.76054     -3308.5643      1261.2302      669.02327      7.4043276    
   3470000   305.61351     -3278.6518      1236.2666      690.54216      9.707036     
   3475000   300.53783     -3326.9152      1214.6989      575.32221      6.4532227    
   3480000   299.38861     -3307.1031      1256.9047      627.06335      6.3588528    
   3485000   300.85298     -3279.2845      1240.5847      651.65701     -2.310978     
   3490000   303.73459     -3309.5045      1280.2951      686.91598     -12.189104    
   3495000   299.12135     -3324.3045      1234.1166      584.68384      9.5721381    
   3500000   288.93066     -3329.8206      1238.7344      492.65596      17.226106    
   3505000   298.88214     -3297.3255      1221.4591      596.86618      0.67585507   
   3510000   295.39612     -3297.6781      1206.8637      550.74472     -2.6097413    
   3515000   297.866       -3364.804       1260.9905      559.8323       4.5402755    
   3520000   304.9185      -3296.2039      1209.1511      639.6596       6.6145358    
   3525000   299.35789     -3304.0472      1216.2867      589.22647      32.745681    
   3530000   294.07714     -3282.7878      1248.1918      595.16833     -3.7546183    
   3535000   294.84062     -3312.6951      1204.3948      528.29137      13.81765     
   3540000   299.20392     -3275.6284      1246.3155      646.29715      4.1767442    
   3545000   298.9588      -3264.77        1239.9713      648.61955      15.613737    
   3550000   294.38549     -3269.8143      1202.3235      565.03088     -6.9124832    
   3555000   299.57709     -3241.8651      1268.0776      705.15967     -24.448067    
   3560000   301.39511     -3203.1885      1245.8256      737.84178     -4.613472     
   3565000   294.70687     -3271.8664      1259.3205      622.84975     -12.052956    
   3570000   295.52654     -3260.3246      1231.8587      614.25952      0.95444123   
   3575000   306.5335      -3273.0105      1261.0435      729.18743      10.422459    
   3580000   303.50997     -3290.52        1200.3977      623.99445     -12.286115    
   3585000   298.477       -3253.1857      1276.0945      692.01854      6.1935721    
   3590000   305.25497     -3283.896       1245.2818      691.10711      1.4541542    
   3595000   307.26221     -3265.4979      1218.3713      700.54431      19.614452    
   3600000   290.26473     -3243.0629      1197.3338      549.94292      1.2189011    
   3605000   294.4118      -3223.6579      1213.2291      622.3282       4.5495294    
   3610000   298.98755     -3233.8571      1195.2241      635.04226      13.603652    
   3615000   290.68839     -3256.6414      1221.3402      564.15938      21.965209    
   3620000   302.75156     -3264.4697      1224.65        667.51494      1.7003521    
   3625000   294.06545     -3290.0544      1200.7295      540.33482      3.5472471    
   3630000   303.06996     -3261.3328      1337.1418      785.99089     -7.5789771    
   3635000   301.37395     -3287.1901      1246.5599      654.38534     -2.0711282    
   3640000   306.45022     -3258.4612      1266.0939      748.04237     -23.601556    
   3645000   301.04493     -3280.9197      1207.7723      618.92586     -15.225661    
   3650000   300.90709     -3290.5759      1250.7159      650.98066      14.015113    
   3655000   302.15255     -3305.7797      1232.655       628.85334      2.3783153    
   3660000   293.16057     -3305.1488      1214.6174      531.03656      8.5451463    
   3665000   308.85008     -3295.7199      1228.9769      695.12729     -14.285693    
   3670000   303.41451     -3301.4991      1170.8628      582.62674     -11.037063    
   3675000   299.94532     -3309.2012      1213.2359      586.27484      12.813544    
   3680000   297.13824     -3285.5777      1230.1256      601.68594      24.443991    
   3685000   298.75666     -3357.7555      1295.2724      609.12753      12.207052    
   3690000   301.25426     -3364.85        1206.5942      535.68934     -5.8017513    
   3695000   300.44667     -3311.2393      1225.597       601.08097      4.3733865    
   3700000   301.92037     -3321.0237      1233.3203      612.1984       18.657301    
   3705000   299.01243     -3329.8899      1257.7613      601.76911      5.912488     
   3710000   306.8814      -3319.9332      1242.8997      667.23206     -0.12278563   
   3715000   294.83986     -3281.3053      1241.116       596.39549      17.370188    
   3720000   299.95488     -3321.3938      1249.2817      610.21354     -1.9911338    
   3725000   293.22406     -3318.6402      1246.4112      549.90672      9.9783322    
   3730000   290.25525     -3354.8492      1213.9854      454.72356      2.3624585    
   3735000   294.01509     -3382.5886      1266.7387      513.35949     -12.665324    
   3740000   298.51192     -3375.8808      1181.0637      474.60484      13.454921    
   3745000   302.19929     -3350.2924      1242.8699      594.9735      -6.8092968    
   3750000   298.30258     -3334.2086      1218.5185      551.85989      25.502094    
   3755000   297.20402     -3326.1848      1258.8147      590.35611     -16.575203    
   3760000   294.47465     -3335.5741      1239.4812      537.22599      2.9854429    
   3765000   300.20176     -3323.9091      1236.3639      596.98808     -0.9568787    
   3770000   291.66071     -3350.122       1230.9934      489.02696      17.542167    
   3775000   299.71421     -3349.6566      1200.6794      531.19623      11.015756    
   3780000   298.36518     -3378.1212      1192.8651      482.85362     -3.5266528    
   3785000   297.08917     -3323.791       1231.6784      564.58654     -20.694895    
   3790000   302.33224     -3330.5079      1174.5048      547.5818      -4.7006081    
   3795000   296.14787     -3358.9899      1233.3642      522.65592      15.344359    
   3800000   298.47406     -3323.5688      1222.2617      567.77625      3.9180706    
   3805000   302.38199     -3281.6129      1230.3948      652.81182      18.930274    
   3810000   300.73859     -3276.2037      1204.4923      617.62243      10.027911    
   3815000   296.37609     -3261.0043      1277.5224      666.84059     -24.627679    
   3820000   299.28782     -3282.4048      1180.5179      574.47357      15.353505    
   3825000   293.4144      -3234.1725      1186.932       576.59734     -0.58148372   
   3830000   300.38075     -3285.7387      1269.001       669.39616     -3.170719     
   3835000   297.11168     -3296.0389      1267.104       627.96546      16.655501    
   3840000   298.16368     -3271.8191      1233.0189      627.50768      10.763147    
   3845000   305.66148     -3294.799       1240.2258      678.78322      31.946451    
   3850000   305.40612     -3347.091       1192.8316      576.81342      1.7853032    
   3855000   299.34415     -3324.6962      1249.7518      601.91974      4.0859213    
   3860000   310.53653     -3320.8613      1212.4188      668.50872      16.88792     
   3865000   303.26328     -3357.4172      1234.9165      589.41        -0.8291696    
   3870000   298.17459     -3330.5345      1184.4778      520.34882      19.17165     
   3875000   296.95619     -3339.8102      1232.3072      548.00706      0.66442606   
   3880000   297.65879     -3296.7596      1221.2121      586.24544      14.759379    
   3885000   303.52765     -3304.4004      1252.6293      662.50375     -12.967018    
   3890000   298.24414     -3278.5027      1264.8797      653.40433      29.468491    
   3895000   303.55877     -3299.6759      1273.4539      688.33113     -9.8519325    
   3900000   302.71369     -3306.5872      1228.7161      629.12494     -5.433374     
   3905000   304.59889     -3295.751       1255.6478      683.75114     -3.5781695    
   3910000   297.9455      -3258.1393      1221.4932      627.7107      -0.82151441   
   3915000   297.16581     -3305.648       1239.9665      591.70299      35.745225    
   3920000   305.29168     -3270.3995      1292.3211      751.97113      3.993915     
   3925000   295.90094     -3257.8968      1227.2303      615.40699      1.1799406    
   3930000   310.83326     -3248.4981      1179.6906      710.79719      6.4887973    
   3935000   292.47985     -3223.6905      1249.8392      641.62932      15.6277      
   3940000   304.96011     -3228.7405      1276.3012      774.64523     -1.8735582    
   3945000   298.70116     -3215.1819      1241.1013      697.03361     -22.158684    
   3950000   301.23044     -3268.516       1248.1726      673.3888      -12.988367    
   3955000   300.22222     -3257.9625      1228.5351      655.28879      0.70739486   
   3960000   307.61351     -3191.2052      1226.5224      786.12947     -3.352554     
   3965000   302.71721     -3266.5224      1238.7468      679.25184     -4.2112982    
   3970000   301.64915     -3259.8187      1254.922       692.57976      12.608333    
   3975000   298.75116     -3291.7543      1188.1352      567.94232      11.959201    
   3980000   299.52265     -3267.6276      1200.9137      611.74653      11.659959    
   3985000   304.77353     -3275.5742      1220.9748      670.81649      7.1222845    
   3990000   291.91273     -3275.1624      1216.0614      551.3082       8.4306376    
   3995000   302.11904     -3299.1942      1232.941       635.42518      12.357417    
   4000000   300.38719     -3269.3081      1241.5505      658.43378      1.3803628    
   4005000   299.67424     -3301.188       1212.6357      591.26362     -2.644796     
   4010000   295.4594      -3251.8834      1270.3577      660.59938     -14.569521    
   4015000   307.86381     -3294.3679      1181.4825      640.16526      19.225776    
   4020000   296.05755     -3227.7917      1193.8429      613.52521      19.67314     
   4025000   306.00985     -3278.9767      1221.2894      678.78429      9.4419913    
   4030000   303.07182     -3291.6938      1202.0918      620.59665      18.123486    
   4035000   299.00761     -3301.9052      1246.8318      618.78125     -8.8879397    
   4040000   303.66539     -3278.9412      1221.1811      657.74645      14.165243    
   4045000   304.97721     -3302.1319      1235.4601      660.56567      5.9756287    
   4050000   301.72129     -3300.2946      1261.9055      659.73249      10.806936    
   4055000   296.57006     -3249.8952      1244.0012      646.16308      4.4989831    
   4060000   301.33583     -3295.7035      1223.8452      622.81625      30.017413    
   4065000   298.86137     -3236.195       1252.9473      689.29927     -11.143083    
   4070000   300.05524     -3245.4666      1253.6174      691.37387     -0.76205035   
   4075000   300.15609     -3267.4986      1232.2253      648.85155      2.951187     
   4080000   296.21807     -3291.6828      1249.6301      606.85665      13.681475    
   4085000   299.16432     -3305.2109      1224.7886      594.83371      8.9029746    
   4090000   294.35626     -3299.9907      1251.9332      584.20277     -15.795137    
   4095000   305.0073      -3304.0483      1242.6823      666.14043      9.5848443    
   4100000   297.77366     -3318.7477      1270.3986      614.47106      26.950014    
   4105000   301.21281     -3317.7265      1215.9518      591.7999      -8.2041971    
   4110000   300.07789     -3295.105       1231.5334      619.85399      9.2779627    
   4115000   305.54338     -3301.5321      1216.6656      647.43389      1.5670811    
   4120000   291.12979     -3260.7509      1212.6221      555.27897      6.8098037    
   4125000   295.48749     -3273.6226      1252.2636      621.01733     -11.85284     
   4130000   294.23752     -3235.1636      1287.541       683.57584      25.1739      
   4135000   307.9075      -3234.1665      1234.6751      753.94989      22.332182    
   4140000   301.51802     -3265.0891      1256.3561      687.5709      -5.1704066    
   4145000   299.09477     -3279.8405      1241.9972      636.79075      2.4367869    
   4150000   295.33298     -3269.0378      1261.6201      633.57682     -25.173889    
   4155000   297.09826     -3339.724       1247.6054      564.66189      20.679671    
   4160000   304.33068     -3313.123       1167.7369      576.06964      25.134083    
   4165000   305.42838     -3337.739       1219.7801      613.31306     -0.1920355    
   4170000   309.21054     -3351.3468      1213.496       627.24283     -0.83240088   
   4175000   297.16829     -3355.4828      1226.8046      528.7284      -18.526478    
   4180000   307.63971     -3340.4198      1237.3508      647.97762      1.9303702    
   4185000   293.147       -3375.6018      1206.013       451.85784     -27.341588    
   4190000   299.77095     -3371.8698      1259.2141      568.02518      0.82039089   
   4195000   299.02472     -3346.0449      1204.9724      532.93517      23.300296    
   4200000   302.38881     -3364.8714      1237.1924      576.41183     -2.3222717    
   4205000   306.95235     -3350.253       1244.3901      639.03703      1.2142499    
   4210000   292.37445     -3388.4498      1256.2415      482.32983     -7.7297948    
   4215000   298.67616     -3358.4021      1256.165       568.65369      3.1226817    
   4220000   299.64548     -3305.3065      1264.72        638.97227      18.295556    
   4225000   297.15191     -3344.3929      1260.5549      573.42224      11.704426    
   4230000   299.16967     -3349.2426      1203.2769      529.3381       17.040749    
   4235000   299.01045     -3366.1774      1209.9211      517.62379     -9.6112267    
   4240000   294.15847     -3331.9184      1230.8813      529.45452      26.034943    
   4245000   299.39221     -3315.5105      1253.6623      615.44567      7.1181611    
   4250000   298.61997     -3329.6415      1245.6749      586.42161     -6.3820266    
   4255000   301.06881     -3321.9801      1238.5285      608.83517      12.960001    
   4260000   300.82173     -3322.4169      1213.5776      581.238       -12.14251     
   4265000   301.35254     -3365.8191      1243.501       572.50586      9.9801636    
   4270000   300.79188     -3263.2564      1214.2922      640.8462       22.160181    
   4275000   299.95811     -3387.7884      1257           551.56608     -14.021089    
   4280000   301.09486     -3385.7518      1213.4976      520.26554      15.864429    
   4285000   298.77165     -3320.9304      1205.9803      556.79459     -5.2487877    
   4290000   299.23964     -3330.852       1192.8655      537.94311     -16.696845    
   4295000   302.19755     -3330.2916      1221.7308      593.81974      15.316017    
   4300000   293.27355     -3327.5878      1249.2926      544.28308      7.8226347    
   4305000   302.65397     -3349.9022      1236.0146      592.5744       9.6974002    
   4310000   301.0103      -3331.9675      1228.8353      588.63126     -8.2996293    
   4315000   297.18186     -3324.3334      1279.6796      612.8742      -15.181302    
   4320000   301.00565     -3333.6953      1248.1228      606.14957      13.017777    
   4325000   302.32691     -3322.935       1228.7215      609.32384      1.537929     
   4330000   301.64173     -3349.3442      1214.4236      562.48944     -1.5997713    
   4335000   296.18017     -3358.2787      1223.2828      513.57464      7.5021688    
   4340000   300.95321     -3348.8314      1180.2941      522.71571      35.820829    
   4345000   292.80077     -3331.1897      1184.2747      471.43545     -7.0636697    
   4350000   302.64533     -3308.689       1235.7434      633.43909      13.047186    
   4355000   308.63869     -3324.5701      1247.4358      682.84569      12.617536    
   4360000   298.52884     -3350.6697      1173.7155      492.6192       18.230446    
   4365000   291.34656     -3318.6296      1224.6721      511.38875     -31.479753    
   4370000   302.44566     -3303.6494      1256.8165      657.76633     -14.175062    
   4375000   294.82076     -3303.5192      1181.7697      514.66453     -10.490936    
   4380000   306.00649     -3282.7789      1292.4974      746.16019      2.9533968    
   4385000   302.03422     -3269.9909      1227.9815      658.91047     -1.4473742    
   4390000   297.34269     -3238.4141      1227.1839      647.73596     -13.319434    
   4395000   294.57197     -3266.0217      1230.4724      598.64         0.94644516   
   4400000   303.13905     -3269.4062      1219.4506      660.84415      0.17924443   
   4405000   300.05331     -3285.4439      1230.4391      628.2009      -21.738219    
   4410000   302.02185     -3310.1351      1220.0256      610.69975      11.11759     
   4415000   294.44264     -3336.8292      1252.2388      548.44232     -2.8648434    
   4420000   303.51688     -3370.7717      1248.8871      592.29379      3.88205      
   4425000   298.28916     -3315.6504      1223.4762      575.25569     -2.8889312    
   4430000   302.46432     -3327.4082      1167.9127      545.27053     -1.488283     
   4435000   294.69836     -3361.6382      1210.9726      484.65387     -5.8887651    
   4440000   294.55964     -3348.3315      1256.2643      542.01182     -18.281478    
   4445000   305.90891     -3372.1953      1237.2236      600.59742      4.5857663    
   4450000   302.48503     -3379.1345      1260.2925      586.10914      17.626738    
   4455000   299.80174     -3370.1002      1231.2525      542.10835      11.034193    
   4460000   301.36277     -3318.213       1271.0521      647.75469      1.8497137    
   4465000   299.47509     -3338.3831      1199.8608      539.51278     -17.143716    
   4470000   295.18816     -3303.7436      1232.0916      568.04755     -7.5601356    
   4475000   301.33485     -3333.4988      1210.0914      571.25835      5.8452669    
   4480000   301.57471     -3330.0039      1210.2879      577.09481      5.277725     
   4485000   295.08348     -3293.7952      1218.4978      563.46605     -1.1378558    
   4490000   298.57916     -3270.9352      1254.4544      653.5425       9.3407842    
   4495000   301.40588     -3254.079       1248.4772      689.69915     -5.9400056    
   4500000   301.88801     -3286.8854      1221.1992      633.92629      2.3491691    
   4505000   309.64894     -3306.9152      1225.0587      687.15755      10.444711    
   4510000   306.93193     -3332.2243      1221.5634      634.05642      1.0725273    
   4515000   296.02033     -3358.698       1269.6666      558.10974     -6.479738     
   4520000   299.9572      -3362.2013      1232.9576      553.1026      -2.9773288    
   4525000   298.63647     -3408.7869      1233.1161      494.8649       15.88886     
   4530000   297.62109     -3366.1611      1242.6022      537.89686     -35.037201    
   4535000   299.71159     -3349.7282      1251.5659      581.98765     -21.292223    
   4540000   303.17492     -3329.3175      1171.9797      553.78276      0.87051619   
   4545000   291.80932     -3312.9863      1253.9077      550.40583     -3.1480493    
   4550000   295.14686     -3347.1858      1275.5505      567.69491      8.035313     
   4555000   299.05324     -3297.0386      1243.8277      621.05182     -23.765921    
   4560000   289.59399     -3291.893       1211.787       509.56805     -6.4998517    
   4565000   300.51251     -3345.3446      1233.1455      575.113        1.0320563    
   4570000   307.47308     -3328.7678      1188.9683      609.75704     -11.952692    
   4575000   295.9729      -3318.6935      1203.8501      531.87362     -1.7179753    
   4580000   292.92823     -3297.5253      1165.9912      487.95609      3.7728407    
   4585000   299.18257     -3330.4629      1285.0137      629.97007      5.5587175    
   4590000   300.89765     -3281.2377      1214.7052      624.22369     -18.066815    
   4595000   298.9794      -3264.1519      1224.9311      634.38164      26.888442    
   4600000   302.87157     -3258.0354      1239.8574      690.22984     -14.662408    
   4605000   296.45745     -3275.2004      1213.2208      589.0705       13.525935    
   4610000   301.72391     -3227.3512      1210.9711      681.76493      12.817198    
   4615000   300.26093     -3226.4643      1267.7301      726.32816      10.898039    
   4620000   301.95794     -3197.2198      1252.7143      755.73232     -2.4148195    
   4625000   298.17785     -3235.4212      1274.76        705.77333      8.0075005    
   4630000   303.17129     -3257.7995      1262.166       715.45459     -9.5234426    
   4635000   293.81783     -3295.5969      1262.7567      594.60516      8.2280918    
   4640000   297.21413     -3285.1607      1278.0569      650.71277     -27.779693    
   4645000   296.63427     -3312.4024      1247.0634      587.29224     -8.6180925    
   4650000   302.95814     -3246.8604      1210.9308      673.2524       22.084869    
   4655000   307.30889     -3255.971       1234.1141      726.23143     -2.0874443    
   4660000   299.27937     -3300.0425      1206.0015      582.24386      19.860149    
   4665000   298.66829     -3303.4652      1261.8022      629.15734      13.226101    
   4670000   300.05675     -3293.4147      1265.597       655.41883     -0.68664179   
   4675000   295.39822     -3296.5593      1288.4169      633.43555      15.596848    
   4680000   298.28509     -3270.6256      1212.4829      609.25084     -11.550054    
   4685000   305.70796     -3295.69        1254.4133      692.49539      15.282174    
   4690000   297.88575     -3317.0973      1193.5311      540.25637      13.541316    
   4695000   303.74552     -3303.7851      1219.5812      632.01923     -22.602228    
   4700000   305.34401     -3309.5631      1234.2902      655.24459     -9.2631241    
   4705000   299.4735      -3264.1106      1247.7122      661.62245      10.241196    
   4710000   295.1886      -3256.942       1233.7108      616.47219     -29.065287    
   4715000   304.28919     -3315.328       1250.7049      656.46178      8.784533     
   4720000   303.05193     -3311.0916      1167.7412      566.67022      13.767662    
   4725000   302.9913      -3316.9261      1251.3599      643.91229     -9.2894523    
   4730000   303.65137     -3304.0723      1266.884       678.19289     -24.88205     
   4735000   305.41504     -3279.2424      1235.6088      687.51907      11.264439    
   4740000   300.45681     -3278.9526      1266.3206      674.18203      1.9135698    
   4745000   299.18413     -3218.4796      1238.1616      695.11518     -15.749875    
   4750000   291.40424     -3238.802       1228.2191      595.27909      4.1016583    
   4755000   298.75128     -3218.2273      1281.0469      734.38201     -6.2768733    
   4760000   292.17579     -3242.1239      1224.1425      594.78015      11.028005    
   4765000   299.98177     -3258.907       1185.749       609.40814      4.7855945    
   4770000   305.95869     -3254.8399      1268.471       749.64538      19.769491    
   4775000   295.72218     -3269.4268      1233.537       608.58513     -4.2598392    
   4780000   299.0801      -3261.0184      1195.1984      608.68288      14.145364    
   4785000   291.57534     -3235.9626      1251.2821      622.71157     -20.100107    
   4790000   292.13087     -3174.7613      1241.8178      679.41645      14.515484    
   4795000   297.11175     -3193.1119      1236.7835      700.57273     -0.2984441    
   4800000   299.24971     -3227.6476      1240.1874      688.55955     -1.2446607    
   4805000   296.3868      -3178.4564      1230.3679      702.32972     -17.479255    
   4810000   297.43914     -3236.8454      1251.7769      674.76025      20.965802    
   4815000   301.55619     -3236.7806      1223.4418      683.30631      8.9137411    
   4820000   299.19897     -3248.7654      1194.5026      621.30311      25.916228    
   4825000   291.79126     -3306.5595      1211.5253      514.2888       4.459959     
   4830000   302.44223     -3255.5582      1224.918       673.92833      4.582609     
   4835000   299.44154     -3243.9068      1242.4376      676.26588     -6.2694417    
   4840000   297.33882     -3256.6745      1202.4262      604.68338     -7.4522037    
   4845000   293.96472     -3267.0578      1171.4841      533.18527      5.006496     
   4850000   309.06273     -3277.9512      1227.1485      712.96919     -1.0492852    
   4855000   299.04481     -3304.7889      1209.4536      578.85214     -1.9366199    
   4860000   304.33835     -3300.3968      1242.9174      664.04507      2.2933756    
   4865000   304.68613     -3329.277       1263.7733      659.13069     -11.061936    
   4870000   299.34914     -3340.9559      1212.3244      548.27727      20.699812    
   4875000   299.20595     -3332.076       1214.994       558.54627      3.240316     
   4880000   304.59139     -3335.6207      1218.8254      606.99187      20.247444    
   4885000   297.80879     -3362.2637      1263.6045      564.47506      3.4262006    
   4890000   308.25689     -3347.4669      1210.8511      619.94995      12.742265    
   4895000   298.65739     -3302.0094      1215.6843      584.39769      19.47659     
   4900000   300.64164     -3374.9627      1203.357       516.86113     -7.2912154    
   4905000   307.20674     -3371.5984      1275.5885      651.16491     -2.9552813    
   4910000   303.97291     -3351.5333      1279.7362      646.4593       6.8397043    
   4915000   299.18136     -3318.1239      1191.1886      548.47316      10.077989    
   4920000   306.9414      -3310.3322      1154.5632      589.03298      16.165779    
   4925000   299.23644     -3303.6974      1220.7615      592.9651       19.091567    
   4930000   297.7362      -3295.3849      1192.9196      560.01987     -0.2602045    
   4935000   292.47928     -3268.8852      1290.2049      636.79527     -3.0302778    
   4940000   298.75412     -3316.4324      1207.257       562.41255     -2.2319921    
   4945000   300.05743     -3253.881       1229.0685      658.43004     -14.960025    
   4950000   295.38063     -3317.4664      1268.5289      592.48313      1.9348219    
   4955000   296.51825     -3342.9397      1226.9201      535.57418      23.921201    
   4960000   302.76445     -3318.5718      1211.8838      600.76201      8.0268987    
   4965000   298.23109     -3327.1027      1227.7031      567.51118     -23.257161    
   4970000   295.93728     -3322.2154      1265.4372      589.62028     -14.489135    
   4975000   294.95451     -3357.6456      1266.2743      546.2389      -17.28974     
   4980000   296.64284     -3291.8649      1221.5513      582.39422     -19.78133     
   4985000   296.12036     -3285.8192      1258.0484      620.26492     -16.398329    
   4990000   301.6029      -3295.5284      1186.7814      588.31587      24.398695    
   4995000   293.64063     -3335.3039      1195.2149      485.7718       13.926856    
   5000000   298.0987      -3380.4437      1216.2441      501.52722      32.366647    
   5005000   296.30359     -3401.2837      1218.0821      466.47255     -7.2018718    
   5010000   298.3291      -3329.6874      1259.6481      597.74775      10.719916    
Loop time of 5054.64 on 18 procs for 5000000 steps with 3001 atoms

Performance: 2563.981 ns/day, 0.009 hours/ns, 989.190 timesteps/s
99.7% CPU use with 18 MPI tasks x 1 OpenMP threads

MPI task timing breakdown:
Section |  min time  |  avg time  |  max time  |%varavg| %total
---------------------------------------------------------------
Pair    | 53.335     | 366.84     | 1587.4     |2341.3 |  7.26
Bond    | 26.696     | 49.678     | 124.3      | 407.7 |  0.98
Neigh   | 2100.4     | 2107.5     | 2118.3     |  14.4 | 41.69
Comm    | 1044.4     | 2410       | 2767.8     |1027.3 | 47.68
Output  | 17.358     | 17.395     | 17.421     |   0.4 |  0.34
Modify  | 30.708     | 55.078     | 137.09     | 425.0 |  1.09
Other   |            | 48.16      |            |       |  0.95

Nlocal:        166.722 ave         462 max          61 min
Histogram: 6 2 6 2 0 0 0 0 0 2
Nghost:        4965.89 ave        5609 max        3954 min
Histogram: 2 0 0 1 4 3 0 0 4 4
Neighs:         2576.5 ave       11220 max         209 min
Histogram: 8 2 6 0 0 0 0 0 0 2
FullNghs:         5153 ave       22327 max         473 min
Histogram: 8 2 6 0 0 0 0 0 0 2

Total # of neighbors = 92754
Ave neighs/atom = 30.907697
Ave special neighs/atom = 3.5988004
Neighbor list builds = 500000
Dangerous builds = 500000
Total wall time: 1:24:18
