LAMMPS (23 Jun 2022)
OMP_NUM_THREADS environment is not set. Defaulting to 1 thread. (src/src/comm.cpp:98)
  using 1 OpenMP thread(s) per MPI task

variable 		movie equal 25000
variable		output equal 5000
variable		solvent equal 0.2  #0.2 is a good solvent, 0.5 is a bad solvent, 1.0 is no solvent/vacuum
variable		np_rad equal 25.0  #NP radius in Angstrom (= 0.1 nm)
variable		coor_del equal 3.0  # in order for a ligand to be considered to be bound, it must be within this radius of the edge of the NP VDW
variable 		s2_cutoff equal 35
variable 		E_bind equal 6.0  #ligand-NP binding energy in kcal/mol
variable		Lbox equal 150.0   #edge length of cubic simulation box
variable 		Nlig equal 600	   #number of ligands
variable		seed equal 314159
variable		trajsteps equal 25000000	 #number of timesteps (length of simulation)
restart			2500000 save

units 			real
atom_style		molecular

region 			box block 0 ${Lbox} 0 ${Lbox} 0 ${Lbox} units box
region 			box block 0 150 0 ${Lbox} 0 ${Lbox} units box
region 			box block 0 150 0 150 0 ${Lbox} units box
region 			box block 0 150 0 150 0 150 units box
create_box		4 box bond/types 2 angle/types 1 extra/bond/per/atom 2 extra/angle/per/atom 1 extra/special/per/atom 3
Created orthogonal box = (0 0 0) to (150 150 150)
  4 by 4 by 4 MPI processor grid

molecule		lig ligand.mol
Read molecule template lig:
  1 molecules
  0 fragments
  5 atoms with max type 2
  4 bonds with max type 1
  3 angles with max type 1
  0 dihedrals with max type 0
  0 impropers with max type 0
#molecule		hex hexane.mol

mass            1 60 #C1, MARTINI bead representing a 4-carbon segment of an alkyl chain
mass            2 60 #N6d, MARTINI bead representing a NH2 amino group + a 2-carbon segment of an alkyl chain
mass            3 43 #SC2, MARTINI bead representing a 3-carbon segment of an alkyl chain. NOT USED IN THIS SIMULATION!
mass            4 500 #a spherical nanoparticle. the mass is not realistic.

# put NP in center
create_atoms	4 single $(v_Lbox/2) $(v_Lbox/2) $(v_Lbox/2) units box
create_atoms	4 single 75 $(v_Lbox/2) $(v_Lbox/2) units box
create_atoms	4 single 75 75 $(v_Lbox/2) units box
create_atoms	4 single 75 75 75 units box
Created 1 atoms
  using box units in orthogonal box = (0 0 0) to (150 150 150)
  create_atoms CPU = 0.000 seconds

# define region as everything outside a spherical center in sim. box. ASSUME SIM. BOX IS IMPLIED? doc seems to...
region			box_with_hole sphere $(v_Lbox/2) $(v_Lbox/2) $(v_Lbox/2) $(v_np_rad+5.0) side out units box
region			box_with_hole sphere 75 $(v_Lbox/2) $(v_Lbox/2) $(v_np_rad+5.0) side out units box
region			box_with_hole sphere 75 75 $(v_Lbox/2) $(v_np_rad+5.0) side out units box
region			box_with_hole sphere 75 75 75 $(v_np_rad+5.0) side out units box
region			box_with_hole sphere 75 75 75 30 side out units box

create_atoms	0 random ${Nlig} ${seed} box_with_hole mol lig 12345
create_atoms	0 random 600 ${seed} box_with_hole mol lig 12345
create_atoms	0 random 600 314159 box_with_hole mol lig 12345
Created 3000 atoms
  using lattice units in orthogonal box = (0 0 0) to (150 150 150)
  create_atoms CPU = 0.004 seconds

pair_style		lj/expand 12.0
pair_modify		shift yes

#pair_coeff		1 1 energy sigma delta cut

#ligand-ligand interactions
pair_coeff		1 1 $(v_solvent*0.810) 4.7 0 12
pair_coeff		1 1 0.16200000000000003286 4.7 0 12
pair_coeff		2 2 $(v_solvent*0.841) 4.7 0 12
pair_coeff		2 2 0.16820000000000001616 4.7 0 12
pair_coeff		1 2 $(v_solvent*0.667) 4.7 0 12
pair_coeff		1 2 0.13340000000000001856 4.7 0 12

#solvent-ligand interactions, NOT USED IN THIS SIMULATION
pair_coeff		3 3 0.562 4.1 0 12
pair_coeff		1 3 0.755 4.3 0 12
pair_coeff		2 3 0.554 4.3 0 12

#interactions involving the NP
pair_coeff  	1 4 0.100 4.0 $(v_np_rad-2.5) 12
pair_coeff  	1 4 0.100 4.0 22.5 12
pair_coeff  	3 4 0.100 4.0 $(v_np_rad-2.5) 12
pair_coeff  	3 4 0.100 4.0 22.5 12
pair_coeff		4 4 0.100 4.0 $(2*v_np_rad-4.0) 12
pair_coeff		4 4 0.100 4.0 46 12
pair_coeff   	2 4 ${E_bind} 4.0 $(v_np_rad-2.5) 12 #this interaction controls the binding strength of ligands to the NP core
pair_coeff   	2 4 6 4.0 $(v_np_rad-2.5) 12 
pair_coeff   	2 4 6 4.0 22.5 12 

bond_style  	harmonic
bond_coeff  	1 4.54 4.7 	#C1-C1
bond_coeff		2 5.98 4.05 #SC2-SC2, hexane

angle_style		cosine/squared
angle_coeff		1 4.1826 180

special_bonds 	lj 0 1 1
Finding 1-2 1-3 1-4 neighbors ...
  special bond factors lj:    0        1        1       
  special bond factors coul:  0        0        0       
     2 = max # of 1-2 neighbors
     2 = max # of 1-3 neighbors
     2 = max # of 1-4 neighbors
     7 = max # of special neighbors
  special bonds CPU = 0.002 seconds

group			ligands type 1 2
3000 atoms in group ligands


#EQULILIBRATION: getting rid of overlaps between particles using fix nve/limit ***************

fix 			1 ligands nve/limit 0.1
fix 			2 ligands langevin 300 300 1000 12345 #langevin thermostat

timestep		30

thermo 			${output}
thermo 			5000

dump      		1 all custom 5000 pos.lammpstrj type x y z
dump_modify		1 sort id

run				10000
Generated 0 of 6 mixed pair_coeff terms from geometric mixing rule
Neighbor list info ...
  update every 1 steps, delay 10 steps, check yes
  max neighbors/atom: 2000, page size: 100000
  master list distance cutoff = 60
  ghost atom cutoff = 60
  binsize = 30, bins = 5 5 5
  1 neighbor lists, perpetual/occasional/extra = 1 0 0
  (1) pair lj/expand, perpetual
      attributes: half, newton on
      pair build: half/bin/newton
      stencil: half/bin/3d
      bin: standard
Per MPI rank memory allocation (min/avg/max) = 8.076 | 8.105 | 8.367 Mbytes
   Step          Temp          E_pair         E_mol          TotEng         Press     
         0   0              9.8623636e+13  4.0068356e-25  9.8623636e+13  8.0147754e+12
      5000   142.1523      -460.0555       620.45783      1431.5894      1.6418897    
     10000   141.01536     -542.11003      632.12424      1351.0342      0.77556564   
Loop time of 3.93908 on 64 procs for 10000 steps with 3001 atoms

Performance: 6580.213 ns/day, 0.004 hours/ns, 2538.662 timesteps/s
99.6% CPU use with 64 MPI tasks x 1 OpenMP threads

MPI task timing breakdown:
Section |  min time  |  avg time  |  max time  |%varavg| %total
---------------------------------------------------------------
Pair    | 0.017174   | 0.051557   | 0.12433    |  10.9 |  1.31
Bond    | 0.011156   | 0.021132   | 0.035556   |   3.9 |  0.54
Neigh   | 0.56297    | 0.57181    | 0.58563    |   0.7 | 14.52
Comm    | 3.101      | 3.211      | 3.2765     |   2.2 | 81.52
Output  | 0.0012071  | 0.0012214  | 0.0012351  |   0.0 |  0.03
Modify  | 0.021711   | 0.040305   | 0.067146   |   5.4 |  1.02
Other   |            | 0.04207    |            |       |  1.07

Nlocal:        46.8906 ave          82 max          21 min
Histogram: 6 8 11 11 3 8 4 5 5 3
Nghost:        3453.62 ave        3534 max        3359 min
Histogram: 1 0 5 9 16 8 9 11 1 4
Neighs:        327.828 ave         808 max          53 min
Histogram: 8 12 14 8 4 5 5 3 2 3

Total # of neighbors = 20981
Ave neighs/atom = 6.9913362
Ave special neighs/atom = 3.5988004
Neighbor list builds = 909
Dangerous builds = 0

#PRODUCTION RUN ******************************************************************************

unfix 			1
fix 			1 ligands nve
undump			1
# define spherical region in center of sim. box
# region			center sphere $(v_Lbox/2) $(v_Lbox/2) $(v_Lbox/2) $(v_np_rad+5.0) units box
# delete atoms in the region
# delete_atoms	region center mol yes
# put NP in the hole
# create_atoms	4 single $(v_Lbox/2) $(v_Lbox/2) $(v_Lbox/2) units box

dump      		2 all custom ${movie} pos2.lammpstrj type x y z
dump      		2 all custom 25000 pos2.lammpstrj type x y z
dump_modify		2 sort id
dump 			2. all custom ${output} pos2_long.lammpstrj type x y z
dump 			2. all custom 5000 pos2_long.lammpstrj type x y z
dump_modify 	2. sort id

group           nps     type 4
1 atoms in group nps
group           amines  type 2
600 atoms in group amines

# count coordination number of NP
compute coords nps coord/atom cutoff $(v_np_rad + v_coor_del) 2
compute coords nps coord/atom cutoff 28 2
dump 3 nps custom ${output} coords.dmp c_coords
dump 3 nps custom 5000 coords.dmp c_coords
# equivalent calculation below
# compute coords nps coord/atom cutoff 28 group amines
# dump 4 nps custom ${output} coords2.dmp type c_coords2

# seond shell
compute coords2 nps coord/atom cutoff ${s2_cutoff} 2
compute coords2 nps coord/atom cutoff 35 2
dump 4 nps custom ${output} coords2.dmp c_coords2
dump 4 nps custom 5000 coords2.dmp c_coords2



run				${trajsteps}
run				25000000
Generated 0 of 6 mixed pair_coeff terms from geometric mixing rule
Neighbor list info ...
  update every 1 steps, delay 10 steps, check yes
  max neighbors/atom: 2000, page size: 100000
  master list distance cutoff = 60
  ghost atom cutoff = 60
  binsize = 30, bins = 5 5 5
  3 neighbor lists, perpetual/occasional/extra = 1 2 0
  (1) pair lj/expand, perpetual
      attributes: half, newton on
      pair build: half/bin/newton
      stencil: half/bin/3d
      bin: standard
  (2) compute coord/atom, occasional
      attributes: full, newton on
      pair build: full/bin
      stencil: full/bin/3d
      bin: standard
  (3) compute coord/atom, occasional
      attributes: full, newton on
      pair build: full/bin
      stencil: full/bin/3d
      bin: standard
Per MPI rank memory allocation (min/avg/max) = 10.11 | 10.24 | 12.12 Mbytes
   Step          Temp          E_pair         E_mol          TotEng         Press     
     10000   141.01536     -542.11003      632.12424      1351.0342      0.77556564   
     15000   290.78643     -553.23075      1280.2109      3327.3175      4.6033256    
     20000   300.46809     -629.31624      1274.8618      3332.4605      4.1795761    
     25000   291.23082     -714.83346      1258.9809      3148.4587     -6.3271581    
     30000   299.594       -795.524        1250.246       3133.8204     -7.8040724    
     35000   296.90144     -894.19927      1257.5929      3018.414      -2.7861417    
     40000   308.72744     -996.4511       1242.1388      3006.4613      2.2083794    
     45000   304.9178      -1046.5686      1286.8758      2967.0134     -7.9560066    
     50000   307.07083     -1089.9446      1276.28        2932.2948      0.31917058   
     55000   305.5642      -1145.9107      1258.4877      2845.0635      2.4533498    
     60000   302.31143     -1214.1685      1245.8855      2735.1158     -2.3865686    
     65000   300.64364     -1238.4285      1248.228       2698.2842     -9.2657766    
     70000   298.8918      -1282.356       1255.5964      2646.0595      0.097354041  
     75000   306.06976     -1308.8804      1254.9915      2683.1185      25.432361    
     80000   306.37306     -1314.5869      1287.4984      2712.6312     -2.3000172    
     85000   295.75947     -1292.407       1258.7931      2611.1945      13.538459    
     90000   300.14137     -1305.6353      1257.494       2635.8519      12.633374    
     95000   294.28402     -1315.3405      1297.959       2614.2328      4.0598344    
    100000   297.22928     -1317.2327      1228.8284      2569.5478     -4.8545236    
    105000   295.45985     -1321.5272      1214.8996      2535.5015      11.496911    
    110000   295.14687     -1308.3808      1245.1463      2576.0958      4.4959581    
    115000   304.63803     -1396.1142      1265.7826      2593.8727     -3.1988732    
    120000   304.87925     -1426.0551      1264.5599      2564.8662      22.348421    
    125000   296.11249     -1458.4738      1319.8035      2509.2949      9.7458038    
    130000   292.43628     -1485.2407      1245.9383      2375.7886      12.117649    
    135000   301.60915     -1490.6336      1268.3991      2474.8843      8.4693511    
    140000   312.12394     -1499.8268      1251.7037      2543.0234      1.054812     
    145000   288.91587     -1470.0516      1312.4184      2425.9768      13.120337    
    150000   300.13203     -1487.0889      1254.2801      2451.1009      4.3994808    
    155000   299.68812     -1507.9874      1210.0304      2381.9832     -3.0803719    
    160000   299.91759     -1493.5266      1254.079       2442.5446     -18.251372    
    165000   298.7267      -1464.0952      1286.4539      2493.7013     -10.103605    
    170000   301.51748     -1479.4225      1267.6049      2484.4814      25.221063    
    175000   298.94936     -1469.5477      1289.5693      2493.3554      1.5727696    
    180000   299.31146     -1491.4226      1291.0044      2476.1536     -11.901728    
    185000   299.23848     -1512.1425      1223.138       2386.9147     -8.898848     
    190000   302.77846     -1489.609       1248.6383      2466.6045      0.67922541   
    195000   299.80014     -1478.4961      1201.1051      2403.5508      7.4487448    
    200000   297.30549     -1475.9579      1266.1916      2448.8672      8.1783912    
    205000   302.078       -1498.8095      1244.4843      2446.9862      13.610066    
    210000   293.38007     -1499.313       1277.4416      2401.6593      4.549077     
    215000   297.4323      -1480.509       1271.0336      2450.2922      7.2737968    
    220000   299.81143     -1463.2501      1270.9459      2488.7385      5.3158477    
    225000   290.90262     -1502.3543      1305.0729      2404.0949     -6.3998403    
    230000   301.88512     -1497.3107      1241.4928      2443.7687      14.554174    
    235000   305.37144     -1494.9512      1224.6376      2460.4491      10.28706     
    240000   292.3233      -1489.7172      1223.5149      2347.8784      1.4133667    
    245000   298.35013     -1522.4156      1241.6886      2387.2482     -3.3523879    
    250000   293.63329     -1505.8286      1302.9015      2422.868       26.241047    
    255000   299.24923     -1498.6728      1224.6021      2401.9446     -1.7451467    
    260000   304.86783     -1518.8679      1224.471       2431.8624      15.019817    
    265000   293.10861     -1503.3828      1230.3664      2348.0869      18.628811    
    270000   299.53307     -1475.3776      1237.9284      2441.1043      14.162075    
    275000   298.66269     -1459.3046      1289.7746      2501.2402      16.840901    
    280000   298.30538     -1453.4839      1302.6192      2516.7103     -1.6824522    
    285000   297.8343      -1501.2327      1251.3227      2413.4524      10.764994    
    290000   297.45822     -1527.6369      1317.8658      2450.2284     -5.2084806    
    295000   299.08683     -1496.2688      1207.7197      2386.014       21.419895    
    300000   306.19435     -1512.9785      1301.435       2526.5781     -6.1325537    
    305000   302.26839     -1477.4912      1310.069       2535.5918     -9.3414682    
    310000   300.21687     -1451.0857      1236.5574      2470.1401      11.564626    
    315000   300.38401     -1471.3053      1269.5835      2484.4413      5.5903557    
    320000   295.27047     -1453.4684      1240.8775      2427.8447      0.21810715   
    325000   294.96831     -1447.765       1253.9883      2443.9568      7.8281935    
    330000   303.69423     -1456.2528      1259.7672      2519.2788      7.5240729    
    335000   297.74966     -1493.3917      1265.0928      2434.3066      13.464555    
    340000   295.43222     -1503.7603      1212.3025      2350.4243      5.3100001    
    345000   300.31533     -1505.1551      1260.9501      2441.3439      12.034096    
    350000   291.29376     -1480.1238      1281.0499      2405.8003      15.570051    
    355000   301.62308     -1435.2531      1273.3296      2535.3199     -1.8097257    
    360000   294.13081     -1409.2336      1276.6472      2497.6579      5.4444045    
    365000   301.46142     -1460.3637      1313.2213      2548.6552      23.532138    
    370000   300.31916     -1435.3817      1229.0642      2479.2657      11.968219    
    375000   301.55963     -1438.3341      1280.8291      2539.171      -3.1500055    
    380000   304.16179     -1474.4769      1249.4885      2494.9572      10.462978    
    385000   306.55438     -1488.0171      1237.0349      2490.359       29.443185    
    390000   296.83876     -1484.5991      1299.6982      2469.559      -2.8291931    
    395000   299.83437     -1471.3421      1284.5765      2494.4823      10.633138    
    400000   299.32789     -1511.2337      1301.2353      2466.7204      16.343595    
    405000   296.48584     -1496.2128      1238.4566      2393.5477     -11.123465    
    410000   301.98682     -1492.1647      1220.2147      2428.5461     -3.5261128    
    415000   302.14191     -1471.8066      1262.6651      2492.7414     -1.3030639    
    420000   304.12195     -1441.2366      1269.0998      2547.4524      27.346213    
    425000   295.16135     -1427.7602      1295.762       2507.4616     -1.9357359    
    430000   299.21192     -1411.0131      1212.1934      2476.8619      10.786206    
    435000   301.22222     -1431.7278      1253.3087      2515.2397     -12.96186     
    440000   306.48706     -1415.0266      1263.7073      2589.4199      9.4724896    
    445000   303.22408     -1432.2726      1223.7441      2503.0316     -0.83078568   
    450000   308.26904     -1407.6657      1282.3786      2631.3873      16.392137    
    455000   308.13272     -1438.6739      1253.6518      2570.4332     -7.0016613    
    460000   304.81756     -1472.2105      1259.1329      2512.7321      10.941843    
    465000   291.71328     -1457.9327      1273.4614      2424.1544      10.040116    
    470000   297.90281     -1481.7928      1229.5961      2411.7784      9.5179887    
    475000   293.87198     -1515.0848      1240.9359      2353.7808     -10.880811    
    480000   299.2091      -1503.8157      1241.9358      2413.7767     -0.76614869   
    485000   289.29185     -1535.1076      1274.9763      2326.8408     -9.930972     
    490000   301.33356     -1531.2653      1269.8614      2433.2504     -5.2875889    
    495000   299.66408     -1560.7683      1276.9561      2395.9129     -1.1421743    
    500000   295.90596     -1526.1281      1278.0932      2398.0836     -5.7129376    
    505000   304.11358     -1521.8132      1257.3004      2455.0017      17.837549    
    510000   302.92388     -1544.4742      1276.6507      2441.0521     -5.0878681    
    515000   303.65885     -1551.3521      1325.3318      2489.4277      1.6939014    
    520000   298.68922     -1520.1527      1258.9273      2409.7821      0.75362763   
    525000   301.98574     -1540.2035      1275.6138      2435.8967      2.6984137    
    530000   299.15192     -1491.619       1235.3376      2418.8637      19.04697     
    535000   289.6252      -1437.2154      1266.9641      2419.7018     -2.6040169    
    540000   294.45713     -1462.5926      1236.1248      2406.6945      3.3573462    
    545000   308.1004      -1442.6719      1248.5946      2561.089       3.1179304    
    550000   300.16815     -1435.2721      1247.3867      2496.3474      3.4957103    
    555000   308.266       -1488.6757      1223.9094      2491.881      -3.0466727    
    560000   297.56353     -1458.7054      1238.4214      2440.6571      1.3264475    
    565000   295.35096     -1479.4178      1290.5134      2452.2509      16.119654    
    570000   291.89109     -1490.5956      1243.6857      2363.3057      9.1989504    
    575000   297.51665     -1474.053       1266.3093      2452.7781      14.463918    
    580000   299.87456     -1480.1415      1242.7886      2444.2545     -8.4904304    
    585000   295.45009     -1510.6839      1230.9473      2362.3052      7.1279236    
    590000   302.19746     -1474.651       1223.3817      2451.1104      11.483783    
    595000   310.91604     -1447.5298      1235.1779      2567.9931      5.6604395    
    600000   295.52845     -1421.431       1262.4399      2483.7514     -0.94449126   
    605000   298.35334     -1454.6083      1282.2122      2495.6078      5.804238     
    610000   295.41766     -1446.7351      1267.0367      2462.0534      13.873112    
    615000   306.24706     -1438.6769      1307.5171      2607.433       11.54741     
    620000   302.78671     -1410.8489      1267.916       2564.7162     -7.9099903    
    625000   298.50754     -1408.4075      1263.6094      2524.5847      13.105518    
    630000   295.32506     -1419.8749      1227.8851      2448.934       7.2303071    
    635000   301.93289     -1418.7999      1222.5346      2503.7485      11.492993    
    640000   296.75913     -1435.2542      1277.858       2496.3516      9.0453539    
    645000   296.4661      -1440.0866      1252.5043      2463.5451      4.9222039    
    650000   301.89842     -1426.1654      1235.0961      2508.6362     -8.6991432    
    655000   306.75805     -1439.2206      1291.9953      2595.9372      15.088427    
    660000   301.93571     -1445.6055      1289.682       2544.1155      6.8789765    
    665000   300.37602     -1495.3283      1248.0074      2438.7706      8.053933     
    670000   296.96699     -1466.2056      1294.1119      2483.5128     -19.682644    
    675000   300.08484     -1500.093       1232.1119      2415.5066      2.883599     
    680000   302.19804     -1514.4934      1261.4243      2449.3158     -7.5065878    
    685000   297.99712     -1492.9775      1262.7902      2434.6311      9.6391785    
    690000   293.81747     -1483.7688      1232.7869      2376.4603      1.5515527    
    695000   294.87578     -1508.1639      1330.6238      2459.3661      11.631235    
    700000   299.67056     -1519.3166      1288.1078      2448.5742     -3.1339418    
    705000   303.11549     -1527.9444      1280.4413      2463.0861     -26.741521    
    710000   297.50813     -1507.7062      1263.7708      2416.5103      12.005537    
    715000   301.17129     -1512.7498      1287.9249      2468.3783      3.9731274    
    720000   294.39103     -1508.1602      1309.9119      2434.3229     -3.7446572    
    725000   304.01921     -1555.3055      1282.8454      2446.2104      10.945392    
    730000   303.27029     -1541.0625      1287.344       2458.2549      7.3151143    
    735000   305.23953     -1498.8911      1273.2988      2503.9908      10.144332    
    740000   301.68326     -1515.8344      1286.1073      2468.0544      1.8877199    
    745000   297.95809     -1514.8599      1296.1625      2445.7719      0.39905195   
    750000   300.00506     -1527.5856      1274.8062      2429.9949     -6.0961104    
    755000   300.05255     -1500.3732      1260.8161      2443.6418      30.422187    
    760000   310.01302     -1508.6964      1279.2613      2542.8347     -1.146387     
    765000   296.03961     -1533.5725      1239.1939      2352.9349     -13.876707    
    770000   299.2898      -1511.1457      1308.4908      2473.7232      0.804032     
    775000   296.75482     -1531.3732      1302.3471      2424.6831      2.0796025    
    780000   294.65306     -1547.7518      1246.9076      2334.0702      5.4929441    
    785000   301.00375     -1531.6718      1247.4639      2407.4971      2.5134729    
    790000   297.83394     -1495.8247      1210.8699      2378.4044      10.426594    
    795000   300.42033     -1470.3422      1284.8805      2501.0261      19.306872    
    800000   302.33543     -1476.9921      1326.8556      2553.477      -8.6145921    
    805000   304.19761     -1458.6967      1294.0958      2555.6649     -1.6375673    
    810000   305.75851     -1477.4066      1271.9529      2528.7704     -1.5190429    
    815000   302.84739     -1468.4557      1290.6711      2530.407       10.923483    
    820000   305.49186     -1510.695       1251.4848      2472.6295     -0.39880177   
    825000   295.46396     -1532.3304      1245.6272      2355.4626      3.4526539    
    830000   293.89745     -1499.0245      1283.9847      2413.1176     -10.817373    
    835000   298.05969     -1462.3024      1254.3502      2457.4258      14.008653    
    840000   289.89297     -1469.9883      1233.6875      2356.0468     -0.090463855  
    845000   308.56371     -1492.2815      1281.0649      2548.0929      1.4867588    
    850000   295.72675     -1519.3382      1324.7034      2449.881       16.381135    
    855000   300.31436     -1525.1111      1261.1855      2421.6146      13.058907    
    860000   308.62417     -1516.5539      1236.4155      2479.7117      6.3647528    
    865000   293.48792     -1548.5175      1274.4647      2350.4424     -12.897691    
    870000   300.96219     -1522.5732      1218.2352      2386.9954      31.518337    
    875000   301.92227     -1545.2341      1258.2311      2412.9159     -4.9766374    
    880000   302.40302     -1523.4185      1264.3183      2445.1177      0.77634418   
    885000   299.28029     -1533.1348      1290.3271      2433.4854      10.155038    
    890000   295.88636     -1498.9728      1305.1538      2452.1241     -4.4718638    
    895000   298.50355     -1498.1387      1261.5826      2432.791      -4.8566339    
    900000   300.66851     -1530.8844      1244.2754      2402.0981      0.90062746   
    905000   306.20725     -1519.0748      1285.0909      2504.253      -3.1471877    
    910000   297.59154     -1506.7098      1212.2768      2366.7586      2.7443098    
    915000   294.6674      -1514.9041      1234.7425      2354.8812      8.0838192    
    920000   296.4415      -1520.858       1285.7567      2415.8061      7.960999     
    925000   299.53684     -1504.1029      1264.4299      2438.9142      8.8028271    
    930000   301.80199     -1516.8405      1268.6909      2450.6936      6.3765223    
    935000   304.4821      -1514.9924      1177.8382      2385.6558      4.5476043    
    940000   299.61468     -1522.2713      1246.3083      2403.3203     -8.8528398    
    945000   300.76362     -1512.2734      1207.277       2384.5613      3.7693226    
    950000   295.40504     -1563.9738      1241.5775      2319.2427      7.7243253    
    955000   293.01176     -1567.1508      1279.5027      2332.5892     -5.8404533    
    960000   294.88878     -1537.6558      1278.4292      2377.7957     -16.551904    
    965000   303.93474     -1525.3943      1291.5154      2484.0362      10.446027    
    970000   296.62969     -1537.7644      1293.1906      2408.0164      8.1148185    
    975000   301.55528     -1517.5361      1260.3836      2439.4845      7.471088     
    980000   294.58023     -1540.7518      1254.358       2347.8693      11.494748    
    985000   308.97094     -1535.9648      1308.6729      2535.6592      23.377606    
    990000   292.97164     -1520.0953      1277.7063      2377.4895      2.554376     
    995000   297.69888     -1530.3684      1236.4178      2368.2008     -8.1753083    
   1000000   301.97959     -1491.5865      1247.0913      2455.9362      12.274814    
   1005000   295.07722     -1530.7662      1201.4083      2309.3495      4.9381655    
   1010000   299.07286     -1492.2102      1239.1852      2421.4131      5.7027306    
   1015000   297.61198     -1493.3542      1252.5291      2420.5492      9.9657699    
   1020000   292.25622     -1481.9202      1279.1911      2410.7517      5.9982277    
   1025000   299.50563     -1461.1988      1255.4368      2472.5462      8.304229     
   1030000   301.88555     -1452.1173      1248.5027      2495.9759      7.5067176    
   1035000   303.70294     -1428.6227      1268.9993      2556.2189      11.80067     
   1040000   302.75087     -1470.0876      1242.1941      2479.435       2.4280253    
   1045000   301.72225     -1420.7153      1252.702       2530.1168      21.121564    
   1050000   308.14586     -1384.4967      1270.994       2642.0701     -9.5481046    
   1055000   300.28976     -1389.0296      1237.2921      2533.5826     -16.286114    
   1060000   300.07934     -1364.277       1260.2077      2579.3692     -5.6600268    
   1065000   298.12908     -1398.6491      1255.9905      2523.3398      12.840611    
   1070000   301.30283     -1390.3851      1290.571       2594.5653      8.4672195    
   1075000   297.72995     -1400.4637      1272.9096      2534.8752      10.978773    
   1080000   298.91371     -1421.1546      1238.7987      2490.6591      15.891877    
   1085000   302.01182     -1467.5978      1269.9596      2503.0814      16.669523    
   1090000   295.49828     -1459.6762      1277.6556      2460.4521     -3.4926862    
   1095000   298.73226     -1468.5665      1280.3982      2483.224       1.4559114    
   1100000   302.12432     -1440.8612      1228.7421      2489.6065     -7.3704192    
   1105000   296.38286     -1458.3608      1231.659       2423.6812      18.667108    
   1110000   300.18674     -1501.5388      1273.5504      2456.4105     -0.77903025   
   1115000   301.18856     -1507.0075      1284.1246      2470.4748     -4.1642755    
   1120000   298.96641     -1508.1584      1248.4794      2413.8072      2.2643703    
   1125000   295.84024     -1527.9455      1253.6576      2371.2428      2.2188085    
   1130000   300.72141     -1491.6801      1254.3672      2451.8673      1.5336691    
   1135000   300.93894     -1521.3593      1241.3362      2411.1024      5.3139192    
   1140000   296.04193     -1545.1793      1288.0728      2390.2278     -2.3461306    
   1145000   297.95958     -1524.9489      1290.6973      2430.2312     -16.759993    
   1150000   301.54722     -1498.7577      1270.0364      2467.8436      5.7895333    
   1155000   303.21694     -1514.2134      1263.3106      2460.5934      0.57136844   
   1160000   295.46819     -1538.2313      1282.4397      2386.412      -10.664798    
   1165000   300.24438     -1505.8559      1254.3944      2433.4529      21.289879    
   1170000   294.93918     -1469.3304      1265.6213      2433.7639      29.032039    
   1175000   297.82399     -1552.4042      1276.9738      2387.8398      24.854099    
   1180000   297.99184     -1512.3418      1290.32        2442.7494      3.0850285    
   1185000   300.39803     -1513.2521      1265.4651      2438.5014      20.184653    
   1190000   297.3901      -1517.6327      1290.6648      2432.4223     -1.546949     
   1195000   304.54863     -1522.3944      1294.7199      2495.7304      0.32504688   
   1200000   292.80205     -1512.9377      1288.3798      2393.8039      12.354767    
   1205000   301.98443     -1512.9354      1232.0627      2419.602      -0.94164536   
   1210000   303.02599     -1543.3765      1277.1622      2443.5744      3.3274529    
   1215000   307.26865     -1548.0928      1263.3534      2462.989      -0.829463     
   1220000   302.41427     -1509.4542      1243.0398      2437.9041      7.1368968    
   1225000   308.67096     -1515.9563      1265.7884      2510.1005     -5.8952756    
   1230000   301.80433     -1482.9865      1274.1389      2490.0165      24.325014    
   1235000   297.0176      -1457.1856      1212.6485      2411.5221      18.125783    
   1240000   289.82917     -1474.0466      1270.0577      2387.7883      15.229856    
   1245000   297.33159     -1463.6927      1249.8268      2445.0012     -1.1119328    
   1250000   303.23519     -1454.4803      1291.6086      2548.7879     -8.7105192    
   1255000   303.89326     -1458.3021      1235.1646      2494.4068     -0.076441747  
   1260000   297.8225      -1472.7363      1303.7637      2494.2843     -1.1073239    
   1265000   299.5735      -1453.6817      1260.4431      2485.6765      3.958089     
   1270000   293.88155     -1457.086       1261.9571      2432.8864      0.11420814   
   1275000   306.04976     -1440.784       1272.9547      2568.9993      1.665465     
   1280000   298.79853     -1478.6459      1270.6851      2464.0243     -2.3752697    
   1285000   304.20572     -1481.0702      1264.0985      2503.3667      0.77143604   
   1290000   299.96695     -1471.8664      1257.39        2467.957       2.2685469    
   1295000   299.54891     -1427.1068      1250.8875      2502.476       19.972295    
   1300000   300.40929     -1456.2433      1260.836       2490.9818      18.193437    
   1305000   290.48937     -1462.8873      1317.3229      2452.1165      7.7169352    
   1310000   308.46597     -1450.4345      1291.5299      2599.5308      18.620746    
   1315000   298.60707     -1484.6673      1264.0535      2449.6591      9.3125858    
   1320000   299.86954     -1472.5678      1290.1703      2499.1649      16.172781    
   1325000   299.27945     -1474.1264      1244.6532      2446.8124      5.1108581    
   1330000   295.76998     -1488.4747      1217.7949      2374.2226      11.273393    
   1335000   300.91485     -1507.5151      1264.9802      2448.3751      17.791973    
   1340000   298.38787     -1457.2032      1276.4992      2487.6086      14.032242    
   1345000   306.01041     -1431.9567      1276.8327      2581.3527      5.1568219    
   1350000   300.15142     -1424.2335      1275.1786      2535.0282      12.991719    
   1355000   300.18342     -1436.6177      1229.1644      2476.916      -6.0921074    
   1360000   296.83852     -1454.9801      1229.6135      2429.0912      6.2470721    
   1365000   291.35441     -1481.0791      1242.5077      2366.8451      0.95194897   
   1370000   300.36308     -1470.9735      1204.421       2419.4233      4.7894768    
   1375000   298.14162     -1458.8611      1285.6296      2492.879      -3.754098     
   1380000   300.4711      -1460.7709      1237.6353      2463.8063      4.1243507    
   1385000   296.75234     -1449.2046      1310.4139      2514.8964      6.6804099    
   1390000   306.04524     -1445.256       1260.2663      2551.7985      1.1303271    
   1395000   296.65196     -1453.2253      1284.5776      2484.1417     -3.8006187    
   1400000   304.4783      -1431.5219      1283.7221      2574.9761     -14.816516    
   1405000   295.82843     -1446.4739      1213.9746      2412.9258      5.1452646    
   1410000   306.35245     -1470.7004      1275.4855      2544.3205      4.1106464    
   1415000   305.75362     -1436.8335      1254.2501      2551.597       13.918111    
   1420000   299.16568     -1458.2852      1289.8617      2506.8448      6.3253166    
   1425000   293.44147     -1410.7937      1294.5314      2507.8175     -13.124464    
   1430000   292.17809     -1404.6973      1255.4451      2463.53        15.184604    
   1435000   296.51154     -1409.7695      1253.201       2494.9652     -3.2559268    
   1440000   301.94396     -1381.6202      1257.7487      2576.2413      4.738658     
   1445000   299.32568     -1411.9323      1254.6082      2519.3749     -2.4108709    
   1450000   291.82945     -1414.4756      1261.2976      2456.4864     -4.5702156    
   1455000   299.30725     -1399.7089      1270.564       2547.3893      12.536705    
   1460000   298.75072     -1403.7935      1287.3943      2555.1583      6.0403606    
   1465000   306.61406     -1450.3194      1229.8256      2521.381      -13.29845     
   1470000   301.14172     -1422.8294      1264.2263      2534.3358     -13.977854    
   1475000   304.67692     -1489.095       1231.3631      2466.8202      7.4162535    
   1480000   300.28026     -1527.6231      1299.2532      2456.8653      6.763086     
   1485000   304.20727     -1519.9658      1282.9303      2483.3167      10.691317    
   1490000   296.25479     -1508.9246      1241.1285      2381.4416      1.1097892    
   1495000   304.13932     -1509.5664      1291.9772      2502.1554     -7.6625394    
   1500000   299.76334     -1482.0306      1258.0418      2456.6239     -1.047252     
   1505000   295.47658     -1449.3716      1235.3888      2428.2958     -10.562307    
   1510000   292.6635      -1461.4319      1244.6164      2400.3074     -6.0712009    
   1515000   294.10864     -1445.1488      1242.5778      2427.475      -14.635222    
   1520000   293.33936     -1422.062       1245.4956      2446.6004      4.1150927    
   1525000   301.83765     -1429.5858      1223.0791      2492.6554     -3.6637087    
   1530000   307.10733     -1422.7833      1238.6026      2562.1051      27.106802    
   1535000   298.25901     -1420.9351      1303.0655      2549.2908      16.730631    
   1540000   304.55814     -1430.1255      1234.8652      2528.2296     -4.8076004    
   1545000   300.85512     -1418.6174      1248.448       2520.2065      17.91648     
   1550000   297.99858     -1412.789       1254.4511      2506.4936      20.071099    
   1555000   302.11248     -1414.9243      1271.4665      2558.162       19.145203    
   1560000   297.903       -1446.9654      1255.3494      2472.3608      7.8326215    
   1565000   293.71269     -1475.1359      1258.7565      2410.1258      6.3418391    
   1570000   297.84728     -1418.7597      1266.8185      2511.5373      11.401136    
   1575000   294.23452     -1403.7426      1312.2159      2539.6449     -2.9652029    
   1580000   303.70146     -1480.1141      1231.3516      2467.0666     -10.111274    
   1585000   303.97355     -1494.0105      1275.7154      2499.9672      4.1695381    
   1590000   301.76449     -1472.2254      1257.2113      2483.4937     -8.6841308    
   1595000   302.64273     -1526.6246      1267.936       2447.6728      6.4784227    
   1600000   303.7806      -1533.4657      1281.0093      2464.0804     -2.0496596    
   1605000   304.44279     -1521.3376      1274.7088      2475.8295      1.3984753    
   1610000   307.82809     -1528.4773      1275.51        2499.764      -2.4901311    
   1615000   294.6254      -1531.2984      1275.853       2379.2217      15.291338    
   1620000   298.87749     -1487.2843      1251.5033      2436.9101     -7.3727334    
   1625000   298.58542     -1497.4308      1206.9564      2379.6048      3.5718946    
   1630000   292.37674     -1485.39        1303.1974      2432.366       5.9191939    
   1635000   301.67038     -1495.1356      1282.1517      2484.6823      15.874026    
   1640000   295.31527     -1496.1018      1245.7412      2390.4755      11.243816    
   1645000   305.36376     -1463.6908      1207.9417      2474.945       18.089454    
   1650000   300.2357      -1455.8803      1262.4249      2491.3814      9.3946967    
   1655000   300.98211     -1436.871       1260.5274      2515.1679      5.6188378    
   1660000   312.00075     -1443.5873      1292.6237      2639.0814     -1.5675538    
   1665000   308.23672     -1458.9004      1256.832       2554.3169     -3.7505641    
   1670000   300.0509      -1482.9969      1279.2043      2479.3916     -12.143394    
   1675000   302.8712      -1478.6127      1285.8896      2515.6815     -1.5664148    
   1680000   300.88431     -1463.0303      1289.531       2517.1376      1.857044     
   1685000   300.09158     -1479.8693      1231.938       2435.6167      9.3754634    
   1690000   303.0958      -1446.9761      1254.2785      2517.7154     -6.5493554    
   1695000   303.48142     -1473.1214      1255.7141      2496.4541     -13.34069     
   1700000   300.9338      -1484.7651      1293.3457      2499.66       -8.7730802    
   1705000   297.9649      -1454.3642      1226.3154      2436.4815      4.479689     
   1710000   305.26947     -1482.9943      1318.5066      2565.3631      6.1774128    
   1715000   301.04357     -1455.4017      1214.7706      2451.43        15.180582    
   1720000   299.16035     -1448.7911      1235.1842      2461.6136      13.0684      
   1725000   312.3504      -1446.9078      1293.6789      2639.9427      11.53947     
   1730000   300.78356     -1492.4374      1246.4841      2443.7826      11.858559    
   1735000   297.85051     -1485.0466      1279.625       2458.0859      19.337508    
   1740000   295.52793     -1520.5444      1240.6887      2362.8822      8.3454995    
   1745000   297.97567     -1529.2692      1235.2954      2370.6529      0.45042877   
   1750000   291.74077     -1529.2187      1221.7121      2301.3648     -5.4412336    
   1755000   305.62679     -1503.3963      1228.0485      2457.6985      10.264181    
   1760000   298.53752     -1528.5701      1260.413       2401.4938      7.4556533    
   1765000   298.8148      -1504.9978      1223.4753      2390.6079     -25.364571    
   1770000   297.56695     -1479.234       1250.9531      2432.6908     -8.8203332    
   1775000   295.59227     -1478.9096      1273.5361      2437.9397     -1.8951352    
   1780000   288.51596     -1475.6648      1255.1038      2359.4728     -8.420277     
   1785000   306.4316      -1479.6836      1263.9266      2524.4861      3.5713912    
   1790000   299.85135     -1463.8233      1258.8536      2476.4301      8.096031     
   1795000   302.1177      -1485.8694      1189.0795      2404.8766     -0.75822844   
   1800000   296.68243     -1470.019       1215.8501      2398.893      -7.9154695    
   1805000   294.62921     -1461.3355      1255.9224      2429.288      -16.295876    
   1810000   301.95093     -1440.2863      1262.8653      2522.7541      6.8992062    
   1815000   297.23094     -1473.0832      1274.8294      2459.7131      12.008608    
   1820000   293.07442     -1475.8342      1293.1498      2438.113       5.6633202    
   1825000   293.5715      -1479.4963      1228.9409      2374.6873      26.843738    
   1830000   297.31592     -1497.3516      1337.8259      2499.2012      4.1855417    
   1835000   300.41734     -1466.4271      1317.288       2537.322      -5.4201511    
   1840000   298.48207     -1487.3724      1276.0339      2457.8166      1.6116103    
   1845000   298.08686     -1513.5385      1244.091       2396.1734      26.625129    
   1850000   302.80434     -1501.6009      1290.6526      2496.8583      3.1178526    
   1855000   298.70241     -1485.7081      1246.3477      2431.765       2.1324154    
   1860000   293.64823     -1477.0496      1254.1595      2403.0387     -6.1412888    
   1865000   298.48864     -1453.0631      1322.8213      2538.972       2.2026829    
   1870000   300.39605     -1478.3478      1246.6808      2454.6038      7.5077671    
   1875000   300.78483     -1471.7387      1296.6585      2514.667       3.4069257    
   1880000   307.48297     -1457.93        1295.6678      2587.3828      15.518196    
   1885000   296.06922     -1464.8423      1241.7049      2424.441       8.7446637    
   1890000   300.43279     -1484.1646      1250.2656      2452.7002      1.9819337    
   1895000   302.89409     -1511.1492      1300.785       2498.2451     -15.731947    
   1900000   293.97474     -1483.5832      1297.7313      2442.9967      15.197834    
   1905000   294.17811     -1503.9988      1299.835       2426.5034      14.618066    
   1910000   297.37711     -1513.9641      1218.5335      2363.8434     -2.5688094    
   1915000   303.3932      -1532.8275      1262.1219      2442.3669      0.91059075   
   1920000   297.34915     -1492.64        1288.0128      2454.3968     -7.7579331    
   1925000   301.25715     -1494.3801      1256.3418      2455.9326      4.1767467    
   1930000   298.06987     -1501.4319      1238.2653      2402.3025     -2.5553179    
   1935000   299.79214     -1456.2626      1276.6057      2501.2133     -2.3381472    
   1940000   305.14621     -1431.8461      1290.6912      2587.5937      17.579152    
   1945000   305.64763     -1415.1758      1222.5567      2540.6135      4.615688     
   1950000   298.9997      -1417.8261      1270.8149      2526.7727      9.6985343    
   1955000   294.94871     -1443.0364      1253.7656      2448.2874      0.72494593   
   1960000   302.45658     -1426.5928      1277.0099      2555.1139     -2.250322     
   1965000   302.81892     -1404.7119      1264.3216      2567.5468     -11.548281    
   1970000   289.16184     -1442.8625      1283.6463      2426.5933     -5.7571108    
   1975000   292.35124     -1449.1205      1240.045       2405.255       0.50053807   
   1980000   303.75172     -1443.88        1283.169       2555.5675     -2.0259988    
   1985000   297.43155     -1447.7083      1244.1968      2456.2494      0.92312167   
   1990000   300.35027     -1430.1524      1284.4294      2540.1383     -8.2214106    
   1995000   298.01677     -1427.2193      1276.686       2514.4608      1.1456685    
   2000000   298.92348     -1503.3471      1261.0968      2430.8521      1.4364698    
   2005000   306.13562     -1460.4455      1288.407       2565.5579     -1.1446764    
   2010000   299.6645      -1457.4292      1283.5877      2505.8874      6.389733     
   2015000   302.58372     -1469.3119      1224.8007      2461.3226      13.600505    
   2020000   289.27237     -1476.5247      1260.3582      2370.6315      3.5591607    
   2025000   297.87488     -1460.6935      1264.1033      2467.135      -9.7242739    
   2030000   293.86756     -1505.1596      1232.1903      2354.9208      12.587536    
   2035000   305.82464     -1511.3399      1260.932       2484.4076      21.955725    
   2040000   300.55953     -1520.1264      1160.0126      2327.6187      2.2719406    
   2045000   299.31475     -1522.9188      1279.7936      2433.4761      18.160994    
   2050000   296.94706     -1512.6488      1261.8324      2404.612       5.7597638    
   2055000   292.61406     -1527.9123      1297.9536      2386.7221      1.7596934    
   2060000   300.66166     -1438.4704      1266.6385      2516.814       9.7503905    
   2065000   307.31255     -1460.9793      1289.9422      2577.0839      18.292714    
   2070000   297.93358     -1466.7763      1263.3741      2460.848       3.6969467    
   2075000   303.50655     -1507.2471      1251.9045      2458.7435      13.265982    
   2080000   310.38876     -1465.9097      1261.9737      2571.6939      6.5540095    
   2085000   302.77651     -1481.6827      1274.468       2500.3431      13.031578    
   2090000   304.62441     -1461.0033      1259.6311      2522.7103      2.8832437    
   2095000   300.84859     -1435.8858      1267.852       2522.2838      8.1941172    
   2100000   300.48971     -1435.9392      1265.7175      2516.8865     -21.596409    
   2105000   295.90791     -1427.2031      1312.9611      2531.8938     -7.7617427    
   2110000   299.88862     -1434.0727      1289.8806      2537.541       5.7661995    
   2115000   303.98834     -1427.5214      1279.7365      2570.6096      4.1154906    
   2120000   296.0224      -1419.673       1257.0269      2484.5135     -0.39752035   
   2125000   301.36238     -1433.3989      1256.9376      2518.4507      3.5102792    
   2130000   305.35742     -1459.4269      1211.8767      2483.0872      12.157321    
   2135000   301.3655      -1474.3116      1236.4688      2457.0971      22.332143    
   2140000   298.34566     -1470.1178      1297.9901      2495.8076      3.0760649    
   2145000   289.00949     -1458.5357      1248.374       2374.2855      2.9836408    
   2150000   297.09496     -1464.6341      1234.4602      2426.5771     -3.6402166    
   2155000   306.7776      -1496.5063      1277.159       2523.99        12.805337    
   2160000   302.3379      -1485.8907      1210.5431      2428.288       4.7581817    
   2165000   302.00885     -1469.296       1257.8371      2489.2342     -9.9810943    
   2170000   307.4988      -1452.4372      1224.9133      2522.2626      11.505641    
   2175000   298.0541      -1442.2161      1251.573       2474.6849     -4.2588555    
   2180000   298.74318     -1451.6944      1275.6326      2495.4282      3.3410084    
   2185000   304.65143     -1478.7514      1290.5935      2536.1662      12.942005    
   2190000   292.35599     -1444.9424      1296.2797      2465.7103     -0.37126235   
   2195000   304.82599     -1447.1779      1244.5022      2523.2094      2.2531827    
   2200000   296.72507     -1441.5657      1243.0995      2454.977       5.7436504    
   2205000   297.30496     -1435.9666      1289.2198      2511.8819     -0.91669117   
   2210000   299.27569     -1418.9931      1289.6635      2546.9224      1.8283811    
   2215000   299.82347     -1449.1215      1233.7829      2465.8118      18.377807    
   2220000   299.38911     -1446.3454      1263.0954      2494.0162     -4.3733714    
   2225000   300.44755     -1477.5726      1254.7572      2463.9158      24.918993    
   2230000   294.5061      -1455.9107      1299.0267      2476.7162      1.9991593    
   2235000   305.41014     -1479.3891      1258.1912      2509.9109      17.345837    
   2240000   292.89613     -1467.1806      1270.4569      2422.4795      15.807137    
   2245000   298.10547     -1476.1365      1283.1013      2472.7522      17.09961     
   2250000   302.42022     -1470.3617      1324.6653      2558.6752     -1.4858646    
   2255000   294.25405     -1432.493       1250.8771      2449.7304      7.1628335    
   2260000   297.14159     -1393.4905      1269.0872      2532.7646     -0.55716768   
   2265000   300.50051     -1425.9464      1282.1114      2543.3698     -4.44931      
   2270000   304.92972     -1419.9843      1266.8324      2573.6609      7.6137848    
   2275000   299.47947     -1398.6491      1256.103       2535.5282      5.209383     
   2280000   300.60742     -1340.2853      1264.6543      2612.5299      9.4914781    
   2285000   297.66699     -1388.0974      1283.2042      2556.9731     -2.7738713    
   2290000   293.07283     -1420.5455      1298.0123      2498.2502      8.3569337    
   2295000   296.36505     -1405.1483      1234.8602      2479.9356      27.595962    
   2300000   304.70143     -1477.5827      1209.6461      2456.8346      9.7324986    
   2305000   303.28115     -1466.6442      1272.2416      2517.6679     -1.2392092    
   2310000   305.99811     -1473.1337      1261.5619      2524.7949     -0.70132729   
   2315000   295.0304      -1439.4696      1229.8787      2428.6978      15.223502    
   2320000   302.88933     -1474.8601      1229.0421      2462.7487      22.48963     
   2325000   292.09573     -1476.735       1211.1549      2346.4655      7.8704872    
   2330000   302.95385     -1473.9504      1296.3158      2531.509       18.958982    
   2335000   304.06181     -1455.1431      1215.9924      2479.9008      18.605931    
   2340000   300.49013     -1502.2677      1258.9536      2443.7979     -10.148374    
   2345000   295.54211     -1492.0202      1243.863       2394.7074     -0.44584832   
   2350000   300.46131     -1473.0128      1282.8131      2496.6546     -1.7139568    
   2355000   295.63275     -1523.2066      1266.695       2387.1636     -2.1282939    
   2360000   294.26549     -1496.8941      1256.7664      2391.3209      6.0435848    
   2365000   300.90209     -1489.374       1323.0623      2524.4842      13.522342    
   2370000   302.22579     -1489.8399      1252.353       2465.1461      29.144634    
   2375000   307.56887     -1518.9778      1267.7098      2499.1451     -0.57638238   
   2380000   296.58817     -1538.4055      1191.6039      2305.4174     -2.2072704    
   2385000   294.16541     -1543.3178      1234.204       2321.4399      7.4635657    
   2390000   301.48277     -1539.9349      1291.8767      2447.9304      10.624263    
   2395000   302.94025     -1533.7828      1266.8283      2442.0676      7.7330917    
   2400000   301.2061      -1554.7345      1226.345       2365.1251      0.78183476   
   2405000   298.0979      -1551.4756      1233.7377      2347.9817      17.10774     
   2410000   302.56312     -1532.6627      1211.602       2384.5888      4.887612     
   2415000   305.39615     -1497.5208      1279.6394      2513.1023      9.7891856    
   2420000   298.59118     -1465.6244      1249.0385      2453.5449      13.840821    
   2425000   298.51002     -1497.4496      1238.8028      2410.7582     -0.6601497    
   2430000   300.75524     -1484.3339      1209.1448      2414.2937      3.7981171    
   2435000   294.67186     -1484.2954      1282.8831      2433.6703     -5.8363004    
   2440000   302.38047     -1495.5575      1243.9577      2452.4165      16.121565    
   2445000   303.76714     -1470.8854      1302.5762      2548.1072      11.66585     
   2450000   298.57821     -1471.109       1299.2619      2498.1677      15.455962    
   2455000   310.02764     -1484.7497      1211.0573      2498.7082      11.684274    
   2460000   300.95566     -1478.6143      1289.0257      2501.6864      3.6637536    
   2465000   295.4028      -1453.6251      1276.2671      2464.2609      16.620063    
   2470000   307.01841     -1423.1181      1285.6645      2608.0371      16.762545    
   2475000   297.24669     -1430.0819      1297.0158      2525.0417      11.14732     
   2480000   302.81228     -1442.7281      1277.3057      2542.4554     -8.3394468    
   2485000   292.4682      -1433.7008      1249.4183      2431.094       13.416146    
   2490000   298.52962     -1446.9911      1244.7724      2467.3616     -0.74584586   
   2495000   304.81995     -1444.2084      1314.6132      2596.2358      9.5782316    
   2500000   296.62291     -1447.3007      1309.3506      2514.5796     -16.137564    
   2505000   296.49562     -1480.6181      1276.6573      2447.4306      2.5808791    
   2510000   305.57474     -1454.943       1203.3566      2480.9943      25.675048    
   2515000   294.63351     -1439.942       1323.3098      2518.1074     -8.9175243    
   2520000   300.09345     -1423.1457      1248.6574      2509.0763      11.02973     
   2525000   299.4386      -1420.0919      1271.4713      2529.0881      16.462456    
   2530000   305.8507      -1395.734       1247.0921      2586.4066      8.5394601    
   2535000   296.92662     -1415.7698      1252.2188      2491.6947      6.3320252    
   2540000   299.53994     -1410.3882      1291.7898      2560.0165     -1.7024547    
   2545000   299.65493     -1381.4832      1293.9559      2592.1161     -0.93759962   
   2550000   302.10857     -1408.5279      1268.6664      2561.7234      11.507666    
   2555000   302.97667     -1442.9304      1238.462       2504.8792     -10.896757    
   2560000   304.52051     -1449.7115      1282.1214      2555.5633      3.6420838    
   2565000   296.67272     -1399.4944      1234.0707      2487.5514      5.9838804    
   2570000   300.07883     -1426.7869      1248.6477      2505.2948      1.7851921    
   2575000   306.41137     -1483.9865      1253.061       2509.1368      19.927013    
   2580000   295.77527     -1485.58        1264.3949      2423.7645      4.6506191    
   2585000   297.88655     -1551.429       1260.8671      2373.2678     -4.0743049    
   2590000   293.97346     -1511.113       1245.9356      2363.6598      8.238321     
   2595000   300.45738     -1516.9417      1199.8647      2369.7422      5.9136126    
   2600000   300.6972      -1512.9278      1253.1705      2429.2064      5.7765188    
   2605000   299.21068     -1497.6177      1276.0044      2454.0574      27.300454    
   2610000   303.00817     -1468.3508      1273.47        2514.7486      28.923179    
   2615000   298.51449     -1481.464       1249.1015      2437.0825     -7.2372239    
   2620000   300.33624     -1436.4641      1254.2198      2503.4916      6.9386572    
   2625000   305.57062     -1406.3111      1273.2516      2599.4844      2.8977906    
   2630000   308.22594     -1442.5709      1247.7999      2561.5179      10.803396    
   2635000   295.56762     -1418.7844      1255.0876      2479.396       13.925529    
   2640000   299.64002     -1432.5419      1288.8782      2535.8462      1.3818053    
   2645000   285.46724     -1415.683       1311.2459      2448.3338     -0.0064784771 
   2650000   298.09679     -1406.7717      1289.6793      2548.6173      14.246291    
   2655000   302.0924      -1395.6166      1250.1696      2555.9932     -7.5177409    
   2660000   302.73212     -1421.9366      1277.5989      2562.8232     -6.2644119    
   2665000   291.80395     -1425.862       1229.4858      2413.0602      7.4076994    
   2670000   302.08128     -1378.2848      1233.5482      2556.6042      9.3485579    
   2675000   296.8289      -1413.4621      1274.0928      2515.0025      4.464971     
   2680000   293.22357     -1399.5568      1222.2373      2444.8119     -4.2618748    
   2685000   303.6335      -1381.4582      1285.7564      2619.5196      3.4381795    
   2690000   302.25339     -1372.4227      1275.0293      2605.4864      7.3230307    
   2695000   304.87852     -1394.6402      1365.3641      2697.0787      5.9242142    
   2700000   300.3044      -1425.7118      1296.2876      2556.0268      6.4602085    
   2705000   295.76934     -1406.6628      1215.3283      2453.5622     -4.9277287    
   2710000   299.19327     -1459.8741      1225.4917      2441.1325     -5.0645849    
   2715000   295.37533     -1478.4685      1252.2673      2415.1721      5.4010097    
   2720000   293.58717     -1510.0813      1291.0944      2406.3958      3.8048469    
   2725000   297.80207     -1491.1416      1279.1727      2451.1053      2.6581176    
   2730000   294.50843     -1460.695       1249.6057      2422.5318      2.4227309    
   2735000   300.68237     -1461.0996      1278.6403      2506.3717      7.1445227    
   2740000   299.16952     -1473.3663      1233.1165      2435.0527      0.51440287   
   2745000   290.20947     -1480.5386      1232.3287      2346.9681      8.9117496    
   2750000   299.90826     -1505.5922      1235.7263      2412.0427     -5.8616462    
   2755000   301.64612     -1502.0924      1284.0106      2479.3677      20.004045    
   2760000   307.7648      -1504.8969      1296.9262      2544.1945      22.015508    
   2765000   299.87849     -1460.7143      1222.0304      2442.9585     -5.6279338    
   2770000   303.58771     -1495.0435      1183.1922      2402.9607      1.1895152    
   2775000   294.9958      -1477.9253      1255.0853      2415.1393      27.370059    
   2780000   296.96116     -1447.4466      1310.9038      2519.0116      9.7144337    
   2785000   296.45686     -1492.1952      1239.4598      2398.3094      2.7353702    
   2790000   302.57402     -1459.9228      1253.0517      2498.876       1.0078884    
   2795000   298.6095      -1513.1679      1255.9879      2413.1146      18.900781    
   2800000   298.99307     -1501.3902      1283.5113      2455.8459     -3.4641746    
   2805000   304.64628     -1496.3493      1262.2877      2490.2164     -8.464578     
   2810000   302.51012     -1487.2801      1269.8036      2487.6992      32.157021    
   2815000   302.51248     -1510.152       1245.9249      2440.9696     -1.5124136    
   2820000   307.46293     -1480.0848      1273.9153      2543.2963      24.581187    
   2825000   300.01148     -1475.007       1275.3977      2483.2225      14.719992    
   2830000   299.54698     -1510.4653      1288.9621      2457.1747     -5.4159579    
   2835000   299.5164      -1503.8259      1256.7468      2431.3254      5.0987016    
   2840000   294.10658     -1528.8129      1264.7469      2365.9616     -13.160754    
   2845000   295.79808     -1477.9294      1310.3095      2477.5338      5.0909569    
   2850000   298.15467     -1530.7255      1253.9175      2389.4194      13.623244    
   2855000   304.31197     -1511.799       1239.5378      2449.0273      11.091795    
   2860000   294.55016     -1531.4283      1243.1817      2345.7476      8.7379982    
   2865000   300.24749     -1566.2495      1241.1729      2359.8656      8.4950174    
   2870000   297.14938     -1546.3365      1285.4565      2396.3576     -0.84153969   
   2875000   293.97974     -1528.0236      1234.2868      2335.1565     -2.4048376    
   2880000   301.74569     -1492.9064      1242.0846      2447.518       0.5945795    
   2885000   297.8654      -1512.6598      1325.7187      2476.6994      2.1968067    
   2890000   297.74385     -1522.2448      1262.1755      2402.4843      5.6200349    
   2895000   299.68309     -1504.216       1296.3734      2472.0525     -8.4336715    
   2900000   298.602       -1534.0028      1216.5364      2352.7611      3.8996298    
   2905000   307.11313     -1490.7195      1225.4623      2481.0805      13.389355    
   2910000   304.61791     -1501.9774      1245.5797      2467.6267      20.629252    
   2915000   303.21108     -1486.9693      1288.2922      2512.7667      15.797625    
   2920000   299.25286     -1472.4318      1283.5786      2487.1946      4.8782703    
   2925000   297.7526      -1474.8857      1277.6685      2465.4146      6.4371879    
   2930000   305.6602      -1468.7187      1223.6846      2488.311      -0.51187474   
   2935000   298.63295     -1464.8682      1300.3817      2506.0178     -13.312521    
   2940000   300.95146     -1438.6489      1260.792       2513.3804      10.23601     
   2945000   302.09693     -1419.0838      1227.9969      2510.3938     -5.7965496    
   2950000   301.12005     -1442.8901      1245.5148      2495.3697      11.701843    
   2955000   306.43508     -1436.289       1302.4026      2606.388      -9.9161314    
   2960000   300.35927     -1448.4135      1272.0615      2509.5898      16.067503    
   2965000   293.24328     -1441.1095      1285.3663      2466.5644      18.62132     
   2970000   300.61835     -1467.1904      1260.413       2481.4812     -3.784152     
   2975000   302.25308     -1488.3849      1266.7415      2481.2337      7.0403912    
   2980000   299.77788     -1471.098       1236.1362      2445.781       1.2456276    
   2985000   301.78337     -1473.8432      1284.3428      2509.1763      16.55485     
   2990000   301.82426     -1472.6308      1287.839       2514.2506      6.7781089    
   2995000   302.96079     -1479.2376      1251.192       2481.1601      34.303331    
   3000000   296.74997     -1442.2867      1263.6796      2475.0588      11.757732    
   3005000   300.47396     -1458.9891      1249.4399      2477.4182      0.58996848   
   3010000   298.7444      -1422.0799      1243.0946      2492.5156     -6.3490504    
   3015000   301.09866     -1432.4719      1281.9291      2542.0109      11.125814    
   3020000   300.72986     -1470.0262      1262.7794      2482.0089     -5.9355381    
   3025000   305.27151     -1407.8806      1222.893       2544.8816     -7.3639262    
   3030000   294.00936     -1417.616       1275.4641      2487.0063     -0.43114533   
   3035000   301.20996     -1450.2701      1292.7098      2535.9887      1.9510345    
   3040000   294.38239     -1464.1495      1291.2156      2459.56        0.91250253   
   3045000   299.50198     -1388.4909      1253.2544      2543.0391     -5.0222786    
   3050000   296.73392     -1451.7875      1243.3619      2445.0968     -8.3617321    
   3055000   300.68585     -1471.886       1260.3041      2477.2803     -3.5712626    
   3060000   297.21577     -1470.1469      1305.2094      2492.8937     -0.22895724   
   3065000   301.94819     -1488.6929      1299.5546      2511.0122      22.190184    
   3070000   299.8519      -1501.6778      1271.3924      2451.1193      15.080067    
   3075000   295.69633     -1507.7511      1255.6722      2392.1649      4.5130781    
   3080000   304.56117     -1480.9064      1287.503       2530.1137      2.2548743    
   3085000   298.17504     -1488.831       1277.4184      2454.9969      18.59074     
   3090000   300.6556      -1492.8604      1257.4099      2453.1412      3.8981649    
   3095000   303.8724      -1486.4841      1305.5149      2536.3885     -10.498919    
   3100000   294.59529     -1458.3552      1292.637       2468.6796     -7.2171626    
   3105000   300.36836     -1450.4605      1247.943       2483.5056      11.980164    
   3110000   304.82681     -1488.8764      1239.764       2476.7802      6.8471967    
   3115000   302.74935     -1506.0325      1225.0504      2426.3329      17.174271    
   3120000   295.88124     -1557.9965      1237.4523      2325.3531     -11.283847    
   3125000   304.22448     -1560.3195      1240.229       2400.4156      19.726952    
   3130000   293.25106     -1550.049       1237.033       2309.3611      17.214825    
   3135000   304.78497     -1566.4666      1228.321       2387.3728      4.9010252    
   3140000   305.63895     -1531.8853      1277.1147      2478.3845      19.090581    
   3145000   296.5801      -1533.6219      1295.9515      2414.4764      15.071052    
   3150000   300.86865     -1536.1267      1317.7411      2472.1113     -12.197302    
   3155000   298.99111     -1498.4351      1278.6918      2453.9639      24.324603    
   3160000   298.12173     -1528.3102      1308.9889      2446.6113      13.534336    
   3165000   297.13069     -1528.4755      1222.4663      2351.0613      0.24210624   
   3170000   299.5404      -1573.2859      1313.7054      2419.0385      17.417437    
   3175000   305.61409     -1581.0333      1253.9071      2405.8066      9.2995496    
   3180000   297.43966     -1516.4326      1258.3864      2401.7872     -6.8517441    
   3185000   309.50396     -1521.9143      1237.7404      2483.5437     -2.648737     
   3190000   304.33197     -1503.3649      1306.3353      2524.4379     -23.816155    
   3195000   297.46174     -1502.5145      1220.7939      2378.3103     -3.6758572    
   3200000   305.20094     -1494.2074      1289.2022      2524.2328     -10.082692    
   3205000   298.3092      -1483.5238      1271.7854      2455.8708      8.8380419    
   3210000   303.13976     -1516.4409      1259.4712      2453.8364     -24.843034    
   3215000   299.93987     -1534.3193      1256.7528      2404.6249      9.2791462    
   3220000   304.95399     -1536.6062      1232.3657      2422.7893      3.877847     
   3225000   303.56904     -1515.2293      1267.5665      2466.9822     -17.319014    
   3230000   299.70644     -1470.6095      1251.1177      2460.6121     -5.5887684    
   3235000   300.60653     -1441.0868      1231.7232      2478.7893      7.0228831    
   3240000   304.83739     -1440.5933      1267.7988      2553.1926      10.00016     
   3245000   302.35856     -1442.8777      1244.9597      2505.9024      7.1844011    
   3250000   295.64318     -1393.8167      1261.5497      2511.5014     -4.0893092    
   3255000   304.1522      -1420.8166      1260.7203      2559.7635      8.734554     
   3260000   302.7692      -1454.3207      1268.5649      2521.7365      10.189333    
   3265000   299.87493     -1462.6903      1328.7081      2547.6284      12.09978     
   3270000   303.72046     -1452.7098      1265.387       2528.6762      9.2992862    
   3275000   298.83336     -1480.7692      1278.9175      2470.4447      20.634557    
   3280000   299.21321     -1513.5058      1261.2125      2423.3999      7.6018118    
   3285000   304.81858     -1486.6112      1267.9843      2507.1919      11.204704    
   3290000   304.01436     -1458.5386      1279.99        2540.0785     -14.197454    
   3295000   297.71182     -1458.468       1286.4721      2490.2713     -22.767114    
   3300000   306.58056     -1474.3455      1208.3912      2475.6209      11.582493    
   3305000   299.53958     -1463.9843      1264.1852      2478.8127      0.036764214  
   3310000   305.6448      -1492.157       1251.0082      2492.0584      19.044983    
   3315000   296.76052     -1467.5626      1241.3469      2427.5445      6.2149122    
   3320000   306.45464     -1484.4844      1277.2387      2533.2034      8.9919341    
   3325000   296.64208     -1460.8752      1230.0427      2421.8686      21.782289    
   3330000   306.54819     -1457.0021      1257.3941      2541.6777     -2.140866     
   3335000   303.3017      -1463.6023      1281.772       2530.424       17.170288    
   3340000   302.51814     -1480.0176      1244.9386      2470.1683      17.525559    
   3345000   291.14253     -1466.6495      1247.0688      2383.9411      11.544209    
   3350000   298.24156     -1468.2669      1250.5152      2449.2526      2.8610568    
   3355000   290.35892     -1454.5445      1265.1974      2407.1672      6.2781823    
   3360000   306.49323     -1447.7422      1289.9646      2583.0167     -9.1456101    
   3365000   297.57388     -1466.8892      1240.7981      2434.9425     -3.2593871    
   3370000   300.56503     -1447.6946      1248.422       2488.5092     -21.378814    
   3375000   300.93848     -1441.7594      1311.4259      2560.7879     -20.904743    
   3380000   294.25455     -1446.6961      1296.6892      2481.3439      14.555822    
   3385000   301.45137     -1456.8485      1249.325       2488.1844      16.501138    
   3390000   300.6444      -1439.3892      1220.231       2469.3334     -1.2557224    
   3395000   299.06678     -1453.6778      1232.9773      2453.6833      1.974847     
   3400000   295.7991      -1409.4486      1293.5702      2529.2843      7.5965123    
   3405000   301.03207     -1422.6799      1255.5026      2524.7809     -3.5135206    
   3410000   306.22559     -1410.6805      1243.7218      2571.4422      8.3747581    
   3415000   303.65094     -1418.7837      1280.9226      2577.5163      1.9926224    
   3420000   304.97697     -1429.9029      1270.8357      2568.168       4.0265103    
   3425000   294.99453     -1415.2151      1252.4818      2475.2348      6.8137084    
   3430000   297.63217     -1442.9862      1259.0453      2477.614      -2.7305795    
   3435000   293.86763     -1455.3643      1260.3746      2432.9011     -15.898952    
   3440000   302.41206     -1419.5679      1284.2802      2569.011       8.3426558    
   3445000   294.98234     -1466.875       1239.0259      2410.0099      10.710967    
   3450000   297.99423     -1476.9047      1270.2366      2458.1244      9.2730609    
   3455000   299.79547     -1435.0681      1262.7253      2508.5573      3.2792519    
   3460000   299.02564     -1446.9154      1268.1991      2495.2996      23.637413    
   3465000   297.35977     -1431.6712      1269.1592      2496.6071      14.020175    
   3470000   298.93552     -1461.4427      1303.9679      2515.7353      24.804374    
   3475000   301.22822     -1478.9756      1296.3405      2511.0771      0.21567372   
   3480000   303.38987     -1465.163       1268.0457      2515.9254     -17.732697    
   3485000   299.24106     -1428.2997      1291.9682      2539.6108     -6.696226     
   3490000   299.19802     -1447.0934      1287.952       2516.416       14.209992    
   3495000   302.24684     -1426.2861      1273.3275      2549.8627     -3.862793     
   3500000   302.31325     -1415.2043      1282.2839      2570.4947      9.219969     
   3505000   298.36471     -1464.7415      1286.1006      2489.4647      7.9303633    
   3510000   304.31969     -1421.0832      1277.7465      2578.0208      9.9441965    
   3515000   296.40279     -1460.7786      1253.3826      2443.1652     -0.51786093   
   3520000   305.03676     -1445.4161      1259.8238      2542.1775      14.0959      
   3525000   296.70913     -1433.1475      1226.0394      2446.1926      9.5115739    
   3530000   303.37783     -1431.0666      1317.6321      2599.5006      7.9990528    
   3535000   298.44358     -1443.8628      1261.3338      2486.2818      20.839348    
   3540000   301.25558     -1463.7377      1260.481       2490.7003      4.9162946    
   3545000   294.32223     -1455.7687      1244.5249      2420.7122      2.3754424    
   3550000   301.24628     -1469.5763      1253.7466      2478.0441      11.062325    
   3555000   295.71906     -1461.9356      1251.8759      2434.3873      17.270084    
   3560000   299.35425     -1439.1311      1294.6496      2532.473       6.9412002    
   3565000   307.25139     -1438.1983      1258.3489      2567.7246      22.022989    
   3570000   302.11855     -1420.4169      1311.8648      2593.1219      19.165671    
   3575000   305.02314     -1432.2166      1283.3416      2578.773      -15.639488    
   3580000   301.78241     -1488.3953      1229.8295      2440.1023      0.84212522   
   3585000   300.31476     -1481.835       1280.812       2484.5208      0.76493045   
   3590000   292.89734     -1505.9088      1268.2868      2381.592       4.920372     
   3595000   293.15147     -1542.5756      1270.256       2349.167       0.5205547    
   3600000   304.70402     -1516.7646      1311.7887      2519.8185      8.3926669    
   3605000   301.75008     -1480.7069      1255.1518      2472.8239      20.60438     
   3610000   303.98084     -1479.4783      1266.159       2505.0082      23.147767    
   3615000   307.37038     -1466.3874      1213.8935      2496.1443      1.1726945    
   3620000   303.33444     -1523.558       1237.7202      2426.7093      13.37414     
   3625000   300.81242     -1513.3692      1272.9929      2449.6178     -3.5703428    
   3630000   308.25419     -1488.5075      1256.8296      2524.8637     -1.3913989    
   3635000   305.42861     -1476.044       1267.1459      2522.376      -1.9529783    
   3640000   300.43036     -1453.1163      1255.3054      2488.7666      17.353463    
   3645000   301.94438     -1457.772       1244.8113      2487.1558      12.069445    
   3650000   299.46487     -1468.0433      1252.5802      2462.4805     -4.084        
   3655000   297.16765     -1446.4304      1233.3679      2444.3384      9.5380761    
   3660000   301.56021     -1455.0065      1253.2574      2494.932       6.0103848    
   3665000   308.41052     -1475.699       1275.4368      2557.6774      22.946391    
   3670000   310.98024     -1436.7179      1259.1014      2603.3025      28.303563    
   3675000   298.03893     -1467.9976      1239.911       2437.1058     -1.064416     
   3680000   301.3346      -1486.4586      1270.8133      2479.0183      2.089854     
   3685000   294.57972     -1487.3884      1266.8118      2413.682       22.088898    
   3690000   298.35514     -1525.0767      1245.5903      2388.5335      19.159481    
   3695000   292.77689     -1507.0501      1249.3518      2360.4386      0.15208789   
   3700000   302.52287     -1520.1005      1226.6072      2411.7964     -2.2785776    
   3705000   294.3082      -1489.2703      1307.3627      2449.9229      14.235772    
   3710000   306.31495     -1478.808       1228.4982      2488.8903     -5.2910218    
   3715000   296.48068     -1466.6122      1272.3979      2457.0435      11.175377    
   3720000   299.65137     -1473.904       1227.4143      2433.1217      15.946992    
   3725000   296.02082     -1480.1085      1260.9108      2427.9479      6.8466329    
   3730000   313.75515     -1435.8547      1260.02        2629.8988      4.07896      
   3735000   297.36816     -1435.4703      1256.4332      2480.1569      3.8431704    
   3740000   305.0649      -1451.2546      1275.2823      2552.0493     -14.805268    
   3745000   299.96466     -1507.0727      1296.9722      2472.3125      11.496066    
   3750000   300.46781     -1530.028       1220.7013      2377.5858      10.154277    
   3755000   301.69504     -1475.0361      1252.688       2475.5387      11.631447    
   3760000   296.24163     -1461.5102      1260.6685      2448.2783     -15.300011    
   3765000   299.38701     -1468.7899      1213.4884      2421.946      -6.0922604    
   3770000   286.29625     -1475.9035      1275.9849      2360.2657      11.631559    
   3775000   296.55694     -1486.5101      1283.2617      2448.6914     -8.3644288    
   3780000   303.39247     -1505.5998      1229.9715      2437.4376      15.063668    
   3785000   303.50563     -1446.0126      1277.0701      2545.1354      1.6427755    
   3790000   300.77874     -1461.6925      1266.455       2494.4554      1.4523909    
   3795000   301.42654     -1449.3683      1228.1568      2474.2743     -3.011164     
   3800000   298.30911     -1491.3999      1245.8842      2422.0926      19.011591    
   3805000   315.69487     -1470.2137      1291.5151      2644.3808      14.591315    
   3810000   299.71262     -1478.7438      1297.29        2498.7054     -11.774825    
   3815000   295.12339     -1474.3357      1248.6753      2413.46        10.704718    
   3820000   303.6752      -1468.0221      1282.7232      2530.2953     -2.8935612    
   3825000   298.64848     -1495.8519      1248.1289      2422.9202      17.426678    
   3830000   299.76513     -1461.5612      1225.344       2444.4115      15.306344    
   3835000   293.47982     -1469.9897      1325.5307      2479.9637     -8.6815213    
   3840000   302.82715     -1438.4825      1250.4671      2519.9952     -2.0961937    
   3845000   296.73912     -1465.7179      1270.1683      2458.0191      9.1669255    
   3850000   303.35443     -1466.2566      1283.9545      2530.4237     -0.61640838   
   3855000   301.41384     -1460.1605      1255.2172      2490.429      -2.6097642    
   3860000   297.632       -1470.8746      1228.1653      2418.8441      2.1813337    
   3865000   300.49009     -1467.9358      1261.083       2480.2588      24.957784    
   3870000   300.99517     -1449.5296      1209.3901      2451.4887      14.381213    
   3875000   301.63414     -1464.5109      1236.5377      2469.369      -4.2838482    
   3880000   298.86107     -1464.2415      1254.3835      2462.6863      0.58520881   
   3885000   307.85287     -1453.7452      1273.7954      2573.003       1.6657613    
   3890000   301.68919     -1444.4229      1275.8429      2529.2544     -5.0334059    
   3895000   302.04738     -1396.9438      1303.5478      2607.6416      8.0862944    
   3900000   298.23849     -1411.3304      1265.1312      2520.7776     -7.8406767    
   3905000   299.01886     -1395.3872      1328.6642      2607.2322     -10.918347    
   3910000   293.86264     -1411.7204      1277.2067      2493.3324      6.761332     
   3915000   303.68555     -1438.1261      1222.746       2500.3067      6.497284     
   3920000   292.65704     -1409.6731      1300.887       2508.279       0.93319999   
   3925000   300.97164     -1440.9143      1298.0194      2548.523       7.8029769    
   3930000   299.41346     -1465.6735      1290.0268      2501.8373      5.3905721    
   3935000   303.76816     -1466.7734      1310.2375      2559.8897      11.178432    
   3940000   303.60155     -1508.7807      1342.6459      2548.8009      6.299932     
   3945000   294.84035     -1488.5388      1271.5353      2419.5857      10.276021    
   3950000   308.63511     -1515.3065      1237.5578      2482.1991      12.647135    
   3955000   298.47047     -1491.0972      1221.3263      2399.2805      14.854103    
   3960000   299.97962     -1519.7993      1270.2374      2432.9849      8.043927     
   3965000   293.55944     -1484.2928      1285.4675      2426.3095     -8.2079172    
   3970000   306.3178      -1497.2778      1304.1073      2546.055       1.2067031    
   3975000   299.27969     -1496.0389      1253.9867      2434.2356      14.99474     
   3980000   301.57315     -1455.9685      1274.7975      2515.6258      21.152829    
   3985000   305.99142     -1488.9468      1248.8191      2496.1792     -1.1406543    
   3990000   296.1505      -1490.9453      1283.9095      2441.2693     -6.8146878    
   3995000   299.60287     -1482.2642      1214.384       2411.2975      3.8323587    
   4000000   308.19574     -1474.4011      1260.319       2541.9367      2.790407     
   4005000   297.044       -1474.4278      1283.0055      2464.8729      12.074414    
   4010000   302.50414     -1440.6674      1267.5541      2532.0088      0.78683792   
   4015000   311.5059      -1438.8135      1237.0438      2583.8501      18.720913    
   4020000   296.5628      -1468.4922      1247.9363      2431.4363      20.971413    
   4025000   303.83118     -1446.7347      1281.8432      2552.0976      1.8750087    
   4030000   300.60129     -1450.0331      1260.247       2498.3199      3.7476371    
   4035000   300.73269     -1444.6222      1273.6679      2518.3268      11.224076    
   4040000   305.03979     -1484.872       1303.506       2546.4311      0.45482431   
   4045000   305.16764     -1524.7924      1268.7144      2472.8624      16.125364    
   4050000   302.88118     -1526.9392      1293.3272      2474.8818     -2.3488225    
   4055000   292.98339     -1515.3015      1273.576       2378.2581     -6.5827105    
   4060000   298.80676     -1530.39        1289.3205      2430.989      -4.370518     
   4065000   297.53797     -1498.6648      1255.1769      2417.2245     -14.992836    
   4070000   299.72676     -1527.5761      1256.1358      2408.8453     -0.9853373    
   4075000   299.55149     -1512.8344      1268.0939      2433.9778      6.4658525    
   4080000   290.83722     -1549.4575      1241.553       2292.887      -1.759015     
   4085000   303.50247     -1526.6144      1215.6528      2403.088       12.818577    
   4090000   291.51616     -1519.2938      1257.4844      2345.0534      1.0385015    
   4095000   293.51284     -1570.0468      1254.942       2309.6133      21.230034    
   4100000   309.04383     -1551.7354      1255.744       2467.6114     -13.805766    
   4105000   305.9816      -1534.7916      1285.5084      2486.9359      12.800897    
   4110000   291.23913     -1551.2159      1317.0146      2370.1843      13.093256    
   4115000   300.23646     -1552.2657      1240.7047      2373.2826      7.4230766    
   4120000   302.60052     -1525.537       1278.3034      2458.7505     -12.682857    
   4125000   299.44428     -1520.1726      1244.9339      2402.5208      5.4770977    
   4130000   301.65121     -1518.2063      1266.4253      2445.7138      6.0523513    
   4135000   302.77978     -1538.556       1249.0333      2418.0644      11.131151    
   4140000   291.93866     -1491.5659      1268.2263      2387.3015     -2.3982617    
   4145000   293.36983     -1491.5514      1242.7597      2374.6476      11.507636    
   4150000   295.60869     -1502.97        1258.233       2398.7231      7.9107525    
   4155000   296.53886     -1553.1179      1288.8828      2387.543       24.406288    
   4160000   292.2333      -1516.4908      1253.1888      2349.9739      8.086696     
   4165000   304.7829      -1506.7724      1260.914       2479.6414      9.353575     
   4170000   303.99177     -1472.6068      1257.3911      2503.2094     -5.7606682    
   4175000   307.61496     -1461.649       1254.3525      2543.5287     -1.0624049    
   4180000   303.22379     -1437.3391      1248.088       2522.3065      3.1567018    
   4185000   301.07264     -1449.6958      1283.0813      2525.7065      5.3571819    
   4190000   292.74635     -1479.3566      1257.6454      2396.1527     -1.4467798    
   4195000   290.61891     -1468.9669      1283.4575      2413.3299     -9.4732854    
   4200000   296.51249     -1466.5182      1217.7246      2402.7486      17.475218    
   4205000   297.71805     -1427.7574      1251.8694      2486.4349      10.188074    
   4210000   305.36698     -1453.257       1244.7039      2522.1697     -7.9869264    
   4215000   303.4032      -1427.8525      1222.4101      2507.7195     -0.22853183   
   4220000   299.21865     -1438.9065      1209.5759      2446.4113      5.1360942    
   4225000   299.60583     -1432.221       1284.8059      2531.7891      4.2881941    
   4230000   302.87877     -1476.5898      1251.9703      2483.8529      2.7253495    
   4235000   302.93769     -1506.9037      1252.8485      2454.9439      2.8101576    
   4240000   297.30546     -1492.7053      1298.2242      2464.1522     -4.7059861    
   4245000   296.60382     -1461.9066      1248.7451      2439.1974      2.0955089    
   4250000   300.19178     -1457.3651      1219.9821      2447.0609     -4.8306992    
   4255000   301.07824     -1447.6568      1280.8033      2525.5176      20.074481    
   4260000   293.70172     -1458.1799      1244.6342      2412.8614      24.90819     
   4265000   295.94733     -1466.5203      1296.5809      2476.5489     -0.053362737  
   4270000   303.99117     -1459.815       1258.551       2517.1558      26.032393    
   4275000   301.52051     -1448.7066      1260.9663      2508.5858      2.2296899    
   4280000   299.50319     -1487.4695      1247.1371      2437.9539      19.656485    
   4285000   291.43832     -1491.7365      1235.6929      2350.1233     -0.60687115   
   4290000   297.99242     -1462.1586      1276.4521      2479.0699     -1.4570763    
   4295000   296.59624     -1463.46        1198.3904      2387.2215      11.791637    
   4300000   296.47669     -1468.1831      1310.5186      2493.5577      0.046823349  
   4305000   298.49662     -1464.4062      1301.6189      2506.4979      4.1167917    
   4310000   292.8358      -1433.3011      1306.0757      2491.4383      0.60056396   
   4315000   301.89904     -1456.798       1246.402       2489.3151     -3.2703948    
   4320000   304.44923     -1453.3284      1250.8505      2520.0382     -4.4633482    
   4325000   301.77973     -1489.7471      1226.1889      2435.0859      23.017899    
   4330000   295.85637     -1458.8483      1294.2192      2481.0459     -4.1946445    
   4335000   298.88093     -1436.9086      1241.4384      2477.2517     -9.6767855    
   4340000   291.01146     -1448.4623      1286.7331      2440.6205      14.062414    
   4345000   295.16021     -1437.7499      1279.6542      2481.3538     -16.022835    
   4350000   295.94759     -1447.5127      1255.1344      2454.1123      1.360848     
   4355000   297.40335     -1468.881       1282.0409      2472.6687     -3.8624683    
   4360000   303.51292     -1462.5085      1239.1877      2490.8223     -9.2492681    
   4365000   300.90822     -1473.281       1254.6807      2472.2505      15.031377    
   4370000   298.855       -1449.4069      1253.3314      2476.4145     -1.793482     
   4375000   297.91877     -1435.6441      1229.4162      2457.8899      2.9720495    
   4380000   299.10433     -1467.5543      1279.7766      2486.9418      3.9732373    
   4385000   298.66231     -1445.8027      1281.3645      2506.3287      5.3348806    
   4390000   300.78224     -1419.7254      1263.8239      2533.8227      13.418292    
   4395000   306.85162     -1443.1405      1276.1608      2577.0195     -3.0214457    
   4400000   299.82452     -1447.8482      1256.7892      2490.1008      15.992279    
   4405000   300.77892     -1465.3964      1277.9177      2502.2158      15.989548    
   4410000   302.13202     -1384.7769      1250.398       2567.4156      36.484204    
   4415000   300.17757     -1433.1637      1269.5543      2520.7076      0.36712888   
   4420000   292.61933     -1429.2188      1249.3436      2436.8527     -4.8022941    
   4425000   294.54158     -1420.455       1320.775       2534.2375      4.0990856    
   4430000   299.6823      -1457.2029      1306.3765      2529.0617      5.5092658    
   4435000   295.119       -1468.5296      1268.9862      2439.5376     -6.108622     
   4440000   303.97495     -1453.0499      1209.2964      2474.5212      8.8293013    
   4445000   294.71086     -1455.9606      1218.7016      2398.1723      11.842107    
   4450000   296.39785     -1452.7649      1298.1437      2495.8959     -5.9371691    
   4455000   304.02857     -1441.9291      1244.715       2521.5401      10.650592    
   4460000   291.98398     -1499.2504      1242.3493      2354.1453     -4.9906234    
   4465000   292.96004     -1462.8481      1315.8103      2472.7369      9.827482     
   4470000   303.16562     -1439.2301      1247.3069      2519.1143      23.422366    
   4475000   296.57606     -1456.3366      1190.4822      2386.2563      16.623831    
   4480000   299.20977     -1452.9292      1287.1067      2509.8401      2.2353664    
   4485000   306.56539     -1487.5871      1298.654       2552.5065      25.052783    
   4490000   297.88861     -1496.6157      1292.7584      2459.9908      14.908025    
   4495000   297.84578     -1482.6295      1285.4199      2466.2554     -8.4915565    
   4500000   301.50199     -1474.7109      1203.1562      2424.6057      21.823776    
   4505000   286.28206     -1454.7856      1296.6583      2401.93        15.364968    
   4510000   298.49943     -1503.0836      1277.7534      2443.9801      12.812343    
   4515000   300.01422     -1477.2377      1238.6952      2444.3137      17.900633    
   4520000   298.38491     -1504.9588      1244.1803      2407.5078      6.1187911    
   4525000   302.39951     -1502.1577      1240.6352      2442.664       3.4434008    
   4530000   304.96044     -1502.1474      1287.3889      2512.3288      3.489811     
   4535000   297.27982     -1491.0548      1266.8182      2434.1675     -0.55699956   
   4540000   297.7229      -1458.4368      1219.7887      2423.7181      4.7417576    
   4545000   301.77932     -1470.3369      1239.7958      2468.0993      19.342788    
   4550000   305.30145     -1453.8835      1295.8381      2572.0915      12.317874    
   4555000   293.41034     -1451.0313      1239.3906      2412.1607     -5.6730362    
   4560000   302.05337     -1387.937       1290.0112      2603.1654      19.452928    
   4565000   296.75582     -1409.2372      1220.0325      2464.5136     -3.8297277    
   4570000   301.42672     -1395.9395      1274.4563      2574.0041      0.95359829   
   4575000   297.42866     -1431.943       1264.8153      2492.6074     -2.2186046    
   4580000   300.81257     -1458.0948      1290.3208      2522.2214      5.4022995    
   4585000   301.58018     -1470.5745      1256.9647      2483.2499      25.455571    
   4590000   296.27017     -1447.1866      1249.7409      2451.9296     -12.085993    
   4595000   306.264       -1410.5724      1223.8521      2552.0241      15.787879    
   4600000   294.37055     -1460.0918      1290.915       2463.2112     -5.2952266    
   4605000   307.79445     -1424.7244      1215.4678      2543.1738      6.9195013    
   4610000   299.89872     -1452.8551      1291.8531      2520.8214     -0.96157368   
   4615000   299.60014     -1453.3944      1232.8175      2458.5764      8.2637168    
   4620000   304.89776     -1425.1414      1277.7924      2579.1779     -0.65576264   
   4625000   297.69636     -1457.1212      1256.0704      2461.0781      9.4524159    
   4630000   300.213       -1465.9391      1239.127       2457.8218     -9.8496184    
   4635000   295.47482     -1480.2346      1251.3314      2413.3597      8.6524485    
   4640000   296.67345     -1469.1753      1282.2234      2466.0296      12.426844    
   4645000   297.00233     -1461.772       1314.9242      2509.0748      5.3870372    
   4650000   298.79412     -1432.8958      1268.6984      2507.7481     -10.061226    
   4655000   302.3325      -1442.008       1260.4815      2522.0607      20.037214    
   4660000   303.51568     -1483.2478      1279.0102      2509.9303      9.7320725    
   4665000   298.42779     -1460.4856      1234.2662      2442.4503      16.482189    
   4670000   302.91401     -1460.1793      1260.0775      2508.6855      6.3752064    
   4675000   302.77176     -1463.4004      1273.2123      2517.3273      1.9055698    
   4680000   297.14898     -1481.318       1258.7549      2434.6708      6.8811064    
   4685000   296.07598     -1483.0034      1277.3651      2442.0005     -3.5131736    
   4690000   297.90403     -1467.9958      1275.1543      2471.1445      1.9919091    
   4695000   299.78547     -1483.1402      1301.2706      2498.9411      7.4942197    
   4700000   306.09274     -1480.8661      1297.5107      2553.8575     -0.13931711   
   4705000   305.95596     -1491.6748      1228.3253      2472.6404      19.352559    
   4710000   296.98713     -1508.3428      1239.8997      2387.3436     -0.021098275  
   4715000   303.62612     -1512.9356      1256.0568      2458.2765      18.924       
   4720000   300.46586     -1492.0047      1268.055       2462.9453     -5.7176422    
   4725000   300.29225     -1495.1437      1309.1426      2499.3414      0.62532026   
   4730000   297.88692     -1506.8698      1273.6403      2430.6034      12.984658    
   4735000   303.94618     -1499.0883      1283.5027      2502.4319     -11.967952    
   4740000   308.86148     -1473.3612      1209.5324      2498.1435      2.9370758    
   4745000   302.33336     -1490.7213      1278.9234      2491.7971      8.026816     
   4750000   302.25079     -1473.3517      1261.1816      2490.6865      12.201658    
   4755000   300.8698      -1494.7113      1285.0302      2480.826       2.0380467    
   4760000   300.11869     -1482.2178      1239.7822      2441.3549      17.46788     
   4765000   300.75312     -1452.1836      1266.2411      2503.5213      0.47232277   
   4770000   305.46069     -1454.9068      1242.6639      2519.318       1.4564675    
   4775000   310.00034     -1481.3798      1254.4929      2545.2696      16.036277    
   4780000   288.43751     -1459.7831      1256.0766      2375.6257     -4.9767524    
   4785000   293.5161      -1430.6987      1280.3767      2474.4252     -5.4076218    
   4790000   290.49268     -1442.7829      1220.7629      2375.6905      11.37836     
   4795000   300.98796     -1431.2859      1288.861       2549.1389     -3.2694365    
   4800000   294.87524     -1446.0951      1249.9046      2440.7107      10.815363    
   4805000   294.62219     -1445.2478      1258.9732      2448.3637     -0.73554881   
   4810000   296.93102     -1463.4149      1278.3953      2470.2653      1.3042233    
   4815000   296.41123     -1483.5165      1247.5387      2414.6589      20.992152    
   4820000   300.56831     -1507.0222      1256.6989      2437.4879      8.9275409    
   4825000   297.08969     -1491.0741      1309.0504      2474.6801     -4.619669     
   4830000   302.07903     -1493.4248      1277.2049      2485.1007     -6.7514014    
   4835000   297.48038     -1508.3499      1205.598       2357.4455     -8.099448     
   4840000   296.54181     -1496.4842      1238.2594      2393.5796     -12.825951    
   4845000   304.79381     -1487.2418      1279.224       2517.5796     -8.1832808    
   4850000   296.13547     -1450.0429      1245.5746      2443.7024      4.686354     
   4855000   301.38059     -1465.944       1199.1244      2428.2552     -9.8588995    
   4860000   306.76362     -1472.5464      1226.3429      2497.0087     -15.217048    
   4865000   299.24096     -1507.3961      1262.4311      2430.9764     -10.388115    
   4870000   299.019       -1525.8018      1230.9602      2379.1149     -0.13466662   
   4875000   294.69048     -1513.069       1274.9648      2397.1449      0.31722861   
   4880000   304.03202     -1475.1624      1239.5573      2483.18        9.8353133    
   4885000   299.65605     -1487.0496      1231.7754      2424.3791      3.2033307    
   4890000   305.29212     -1475.285       1287.4169      2542.1854      11.782926    
   4895000   297.12312     -1455.5183      1255.9412      2457.4257      9.0636495    
   4900000   304.75829     -1451.4697      1229.0907      2502.9008      12.201578    
   4905000   299.48483     -1455.6045      1267.8312      2490.3488      9.1830558    
   4910000   298.85762     -1466.368       1233.5784      2439.7238      14.803711    
   4915000   299.44443     -1474.5625      1271.3308      2474.5292      9.5584829    
   4920000   295.99876     -1445.0413      1264.3317      2466.2386      12.02573     
   4925000   304.36347     -1471.0929      1192.8571      2443.5133      2.1454248    
   4930000   297.94856     -1492.379       1283.7493      2455.7545     -1.8167327    
   4935000   297.7958      -1475.2834      1256.7623      2444.4971     -11.671341    
   4940000   303.00844     -1473.2028      1242.4921      2478.9211      18.467274    
   4945000   297.58833     -1486.0721      1248.9406      2424.0315     -1.9843344    
   4950000   299.07804     -1446.9069      1228.5666      2456.1442     -8.6411554    
   4955000   303.99764     -1461.6581      1297.2022      2554.0217     -5.4759849    
   4960000   301.53919     -1481.0448      1267.6709      2483.1192      9.5992622    
   4965000   298.79571     -1441.1931      1269.2302      2499.9969     -3.3211135    
   4970000   295.71559     -1435.3369      1293.3749      2502.4541     -3.3976594    
   4975000   294.8393      -1433.382       1275.9119      2479.1097      6.1956484    
   4980000   292.16392     -1462.1689      1292.4102      2442.8967      28.64678     
   4985000   304.45971     -1410.3871      1282.9673      2595.1898      7.7746199    
   4990000   292.87499     -1437.423       1250.2677      2431.8589      2.2609361    
   4995000   293.19916     -1436.9629      1249.9673      2434.9174      3.2966011    
   5000000   298.55067     -1433.7519      1245.0487      2481.0653     -2.5893803    
   5005000   295.90763     -1428.39        1263.64        2481.3834      13.115551    
   5010000   296.01443     -1435.5344      1351.5775      2563.1314     -3.1104752    
   5015000   301.50123     -1449.1351      1297.6404      2544.659      -5.7051042    
   5020000   301.99523     -1470.9148      1284.8954      2514.5519      6.0272496    
   5025000   300.10233     -1477.1705      1280.2979      2486.7715      1.1951211    
   5030000   305.52248     -1441.3189      1228.515       2519.3095     -7.4438977    
   5035000   302.52285     -1450.0482      1296.1924      2551.4337      18.996061    
   5040000   310.29401     -1452.6118      1244.2477      2566.4185     -10.102298    
   5045000   293.01645     -1466.2231      1279.3481      2433.4041      7.2632859    
   5050000   299.33795     -1471.8162      1235.8226      2440.8152      4.641195     
   5055000   301.37603     -1494.223       1234.8084      2435.6195      12.135253    
   5060000   303.71029     -1518.0287      1256.5583      2454.4376      5.6820024    
   5065000   299.2822      -1493.3737      1313.2829      2496.2193     -0.15971394   
   5070000   296.55995     -1493.9139      1242.441       2400.4937      0.81096232   
   5075000   302.09151     -1484.9175      1272.4154      2488.9302      23.271798    
   5080000   304.90728     -1472.7994      1300.4301      2554.2428     -2.1096484    
   5085000   292.46651     -1545.7695      1259.3099      2328.9018     -7.3072955    
   5090000   301.69733     -1536.8342      1254.891       2415.9642      16.4254      
   5095000   292.84487     -1509.4628      1234.4189      2343.7009      9.0023751    
   5100000   300.66774     -1489.361       1291.9723      2491.3115     -1.0985789    
   5105000   292.80071     -1500.7419      1292.1348      2409.7429      3.7827469    
   5110000   290.90323     -1511.8219      1227.7787      2317.3386      18.954052    
   5115000   298.08826     -1520.8796      1239.1113      2383.8652      4.8970119    
   5120000   301.6041      -1535.7569      1251.6633      2412.98        15.192096    
   5125000   294.20087     -1532.4306      1250.0801      2348.5202     -23.230215    
   5130000   296.75454     -1499.6831      1240.5396      2394.5632     -5.4297279    
   5135000   292.9246      -1512.3022      1224.9346      2332.0901      21.077266    
   5140000   300.69689     -1518.0011      1291.958       2462.9178     -10.338596    
   5145000   294.70745     -1540.4363      1275.7235      2370.6879     -0.85246758   
   5150000   294.95663     -1497.2105      1235.0617      2375.4803      15.67802     
   5155000   303.54708     -1500.4885      1249.4433      2463.4034     -9.1737383    
   5160000   291.97031     -1468.3194      1264.0737      2406.6784     -5.7292311    
   5165000   304.67479     -1471.1511      1288.2498      2541.6317      0.33735898   
   5170000   298.37035     -1500.8699      1261.002       2428.288       4.8656273    
   5175000   303.1535      -1505.4935      1294.762       2500.1975     -1.8240736    
   5180000   291.76863     -1454.8608      1225.2799      2379.5397      14.959099    
   5185000   295.48115     -1475.7935      1297.4727      2463.9989      12.55798     
   5190000   305.38078     -1447.3661      1275.2112      2558.6914     -2.519657     
   5195000   299.19704     -1499.4337      1283.9744      2460.0892     -10.738818    
   5200000   298.65165     -1496.9401      1291.732       2465.4634      11.654271    
   5205000   298.44929     -1505.3868      1270.6794      2434.1545      16.897565    
   5210000   302.62951     -1495.7354      1280.272       2490.7799      11.368873    
   5215000   296.92653     -1475.3484      1312.103       2491.9993      2.5336062    
   5220000   304.12473     -1458.6392      1311.5468      2572.5218      5.2872655    
   5225000   301.98889     -1470.7741      1283.8712      2513.6117     -0.6834286    
   5230000   295.12924     -1466.4157      1249.9496      2422.7064      9.5443941    
   5235000   303.85861     -1466.5711      1304.2213      2554.8846      16.38596     
   5240000   307.96399     -1499.1056      1216.798       2471.6389      6.9189961    
   5245000   300.66209     -1527.3076      1197.7553      2359.0975      15.784733    
   5250000   311.48409     -1491.0184      1215.8919      2510.2982      5.623439     
   5255000   297.61374     -1477.8122      1260.8439      2444.4217      7.6584394    
   5260000   303.71891     -1436.929       1245.5038      2524.56       -9.8980542    
   5265000   306.06441     -1471.7227      1310.0501      2575.287       3.8490711    
   5270000   301.04082     -1483.3578      1239.5072      2448.1858      6.8277274    
   5275000   289.16069     -1413.0623      1302.5803      2475.3173     -2.3587927    
   5280000   297.90526     -1397.0621      1305.9395      2572.8744      10.286543    
   5285000   297.33397     -1431.8581      1223.3031      2450.3332      21.282898    
   5290000   294.55635     -1471.232       1254.5127      2417.3303      9.7445505    
   5295000   304.2861      -1454.4437      1225.4811      2492.0946      9.1443338    
   5300000   304.89161     -1440.6465      1266.3855      2552.2108     -8.0075488    
   5305000   309.50664     -1419.6974      1238.4135      2586.4575     -8.3446081    
   5310000   295.7791      -1443.2932      1267.1364      2468.8271      4.8953149    
   5315000   304.65786     -1436.4727      1277.8972      2565.806      -1.1937858    
   5320000   301.49797     -1418.4108      1219.8686      2497.5823     -6.4874512    
   5325000   300.29548     -1449.0512      1233.548       2469.8681      5.0820107    
   5330000   305.27975     -1456.5082      1298.9604      2572.3951     -4.8761015    
   5335000   293.62662     -1465.6812      1297.8221      2457.8765      22.644234    
   5340000   301.29248     -1476.8162      1269.0723      2486.5431      10.591315    
   5345000   295.81657     -1466.3427      1273.1025      2452.0788      7.7461585    
   5350000   303.22103     -1434.7153      1266.4975      2543.315       1.2681695    
   5355000   300.29623     -1452.9723      1247.0996      2479.5054      10.045175    
   5360000   300.58449     -1473.4597      1265.0643      2479.5604      7.8665182    
   5365000   300.41282     -1510.7454      1280.6207      2456.296       24.744984    
   5370000   296.56467     -1488.7359      1276.3858      2439.6587      3.9567892    
   5375000   304.49269     -1492.617       1204.4614      2434.749       4.9948894    
   5380000   303.3382      -1515.2275      1259.8281      2457.1812      3.9216936    
   5385000   299.63639     -1504.3907      1250.1426      2425.2294     -3.0334494    
   5390000   302.85478     -1515.2155      1313.5302      2506.5723      3.7895499    
   5395000   302.37149     -1509.9085      1266.9274      2460.9548     -0.99784015   
   5400000   299.36128     -1501.7813      1298.9479      2474.1838      15.359048    
   5405000   292.07784     -1525.5139      1248.0081      2334.38        1.9991408    
   5410000   295.39274     -1482.5316      1236.9091      2395.9064     -2.7835892    
   5415000   295.61702     -1504.9734      1242.8905      2381.4517      0.0045319053 
   5420000   298.94534     -1512.984       1244.124       2404.4378      9.185513     
   5425000   297.86875     -1501.487       1271.0323      2433.2158      14.312505    
   5430000   304.69096     -1499.8792      1305.0788      2529.8772      2.566551     
   5435000   297.71494     -1485.7987      1248.8892      2425.3856     -4.5494826    
   5440000   292.42559     -1471.9875      1242.5957      2385.6035      3.5492002    
   5445000   298.28956     -1507.0536      1280.3795      2440.7595      1.9026849    
   5450000   290.48931     -1486.2171      1273.691       2385.1543      8.1182936    
   5455000   296.55863     -1470.9078      1263.6827      2444.7297      17.66001     
   5460000   304.18706     -1460.4884      1245.9429      2505.626      -18.059514    
   5465000   296.90894     -1447.9295      1294.3635      2501.5215      7.6195062    
   5470000   296.58692     -1430.1702      1272.1899      2494.2275     -1.7698457    
   5475000   301.72613     -1402.2395      1251.7019      2547.6273      9.9210655    
   5480000   296.26024     -1396.712       1263.9897      2516.5642      24.861838    
   5485000   306.84368     -1414.4155      1300.3411      2629.8538      13.847439    
   5490000   301.37173     -1392.4156      1285.3038      2587.8838      10.630887    
   5495000   302.41272     -1369.362       1274.8908      2609.8334      10.455739    
   5500000   304.1729      -1424.2672      1264.6035      2560.3812      22.979724    
   5505000   303.35344     -1405.8491      1274.2521      2581.1199     -1.3963025    
   5510000   302.74776     -1406.5153      1289.3309      2590.1164      2.3642736    
   5515000   293.51691     -1448.7825      1247.0233      2422.9953      13.48008     
   5520000   300.56513     -1471.2492      1277.6416      2494.175      -8.083388     
   5525000   298.53879     -1461.5079      1285.204       2493.3584      9.0913607    
   5530000   302.33379     -1429.2221      1249.5333      2523.91       -4.465739     
   5535000   301.24791     -1467.8717      1249.6829      2475.6996      3.111249     
   5540000   305.51379     -1445.9797      1273.883       2559.939       10.710469    
   5545000   304.28814     -1461.9314      1280.019       2539.163       5.9886939    
   5550000   293.51996     -1465.2351      1327.6911      2487.2377      7.715226     
   5555000   302.11251     -1430.0405      1224.2288      2495.8083      9.3868491    
   5560000   310.19717     -1452.6292      1242.9847      2564.2721     -3.6987796    
   5565000   299.43175     -1479.9434      1259.703       2457.4071     -0.056970106  
   5570000   299.46801     -1460.0027      1294.0511      2512.0202      2.0440603    
   5575000   299.70596     -1467.3319      1272.7105      2485.4782      14.824495    
   5580000   299.3946      -1484.219       1280.2451      2473.3415      2.5131146    
   5585000   299.23852     -1445.9548      1261.2171      2491.1818      1.4955566    
   5590000   296.91143     -1490.9428      1280.5676      2444.7345      8.5283376    
   5595000   296.19889     -1460.819       1275.3924      2463.3113      4.4876776    
   5600000   292.84769     -1446.5368      1292.1691      2464.4023      2.4158527    
   5605000   295.91153     -1440.2059      1230.3168      2436.2791      9.1951805    
   5610000   298.4094      -1457.1849      1236.7152      2448.0354      12.396186    
   5615000   296.76721     -1446.3749      1247.9095      2455.3547      13.123704    
   5620000   292.25497     -1448.7784      1280.0066      2444.6979      14.879153    
   5625000   302.2883      -1449.4437      1243.4438      2497.1922      6.9070081    
   5630000   300.28529     -1414.9057      1231.5771      2501.9516     -7.6157131    
   5635000   305.9089      -1430.087       1275.4347      2580.9167      4.8572426    
   5640000   301.16343     -1452.5032      1262.4472      2503.077       1.9435199    
   5645000   301.90718     -1442.1025      1248.4944      2506.1758     -2.0801631    
   5650000   299.22197     -1439.2251      1251.231       2487.7775      8.9250702    
   5655000   300.13085     -1478.0796      1209.9657      2415.7853      5.6669981    
   5660000   296.13325     -1450.3513      1274.1608      2471.9604      5.6712905    
   5665000   293.42107     -1421.6828      1262.1119      2464.3265      4.8650915    
   5670000   300.46208     -1430.1747      1300.2997      2556.9862      5.7298994    
   5675000   303.7454      -1406.2016      1237.5765      2547.5969     -14.447447    
   5680000   296.52321     -1393.0948      1316.9614      2575.5047     -12.142984    
   5685000   296.07872     -1428.2446      1251.1707      2470.5893     -2.7256023    
   5690000   302.37889     -1457.2247      1266.9439      2513.7214      0.59275835   
   5695000   304.26391     -1461.1716      1283.3294      2543.0165      7.2264755    
   5700000   295.49134     -1483.9994      1250.4321      2408.8435      5.4584385    
   5705000   297.60149     -1485.1452      1288.4194      2464.5547      1.2365921    
   5710000   305.8096      -1515.2531      1243.1811      2462.609      -12.717333    
   5715000   301.08083     -1518.6887      1260.3726      2434.0782     -2.5030609    
   5720000   298.77032     -1513.8757      1235.0529      2392.9099      24.002547    
   5725000   292.68114     -1484.9389      1244.2154      2376.5572     -0.67648192   
   5730000   300.16883     -1508.9642      1266.9634      2442.238       19.889575    
   5735000   307.21666     -1527.5516      1292.5454      2512.2575     -2.1141056    
   5740000   296.58135     -1535.3244      1260.5637      2377.3973      15.648092    
   5745000   293.25138     -1551.269       1254.7588      2325.8697      11.283182    
   5750000   308.50536     -1537.6948      1282.9823      2504.0751      1.7344248    
   5755000   300.55349     -1504.4514      1275.9678      2459.1949     -8.9533024    
   5760000   296.54495     -1519.6749      1288.7856      2420.9432     -6.5885142    
   5765000   296.93282     -1532.6588      1232.0723      2354.7145      0.37336294   
   5770000   298.48398     -1504.6637      1239.0409      2403.5493     -1.1078892    
   5775000   305.04333     -1495.6483      1260.1291      2492.3095     -12.079129    
   5780000   311.68547     -1494.4457      1299.6643      2592.4442     -14.499571    
   5785000   310.218       -1509.2772      1274.1225      2538.9481     -14.154145    
   5790000   296.51173     -1468.2228      1298.0436      2481.3562      6.9334252    
   5795000   300.61255     -1483.9157      1309.0831      2513.3742     -6.9814646    
   5800000   304.07497     -1494.1568      1229.2356      2454.248       16.602567    
   5805000   301.59829     -1495.4604      1234.8422      2436.4035      4.3364801    
   5810000   302.3157      -1454.7497      1287.8924      2536.5796     -9.6249539    
   5815000   298.09411     -1469.0514      1261.8088      2458.4432      11.094165    
   5820000   296.10462     -1466.9759      1259.8296      2440.7485      6.6388879    
   5825000   297.45992     -1438.7049      1259.4712      2480.7808      8.4343234    
   5830000   295.3814      -1455.2472      1218.4433      2404.6236     -3.2760194    
   5835000   298.63317     -1456.998       1297.1305      2510.6388      12.898142    
   5840000   305.3274      -1483.0673      1253.1414      2500.4431      15.467623    
   5845000   299.22311     -1450.1545      1262.3039      2487.9312     -6.6661868    
   5850000   300.02409     -1491.6583      1250.2189      2441.5051     -14.242326    
   5855000   302.91104     -1485.6415      1262.8028      2485.9222      9.8056778    
   5860000   299.62991     -1506.0608      1317.3354      2490.6942      8.3983859    
   5865000   297.2774      -1520.6297      1267.7502      2405.503       9.0689551    
   5870000   300.93066     -1485.7338      1252.1259      2457.4435     -8.0815797    
   5875000   308.02339     -1496.5953      1256.752       2514.6343      22.106164    
   5880000   297.05123     -1521.5311      1284.6016      2419.4304      5.9378863    
   5885000   288.34536     -1530.4217      1306.5338      2354.6203      28.367916    
   5890000   293.08588     -1510.6177      1240.2121      2350.4944      0.38616872   
   5895000   297.75028     -1511.0028      1216.0182      2367.6264      0.53378315   
   5900000   301.52584     -1481.0079      1239.6186      2454.9844     -7.2140203    
   5905000   296.38272     -1473.1096      1301.2796      2478.5517      3.0204245    
   5910000   301.26186     -1501.7608      1261.7575      2454.0098      4.8993307    
   5915000   293.52754     -1507.9864      1293.4362      2410.2993     -4.4485158    
   5920000   299.5342      -1493.4732      1305.8698      2490.9602      5.2759623    
   5925000   301.50355     -1496.6005      1245.149       2444.7229      17.265558    
   5930000   298.20707     -1500.8862      1265.457       2431.2667      19.710268    
   5935000   294.54496     -1478.6504      1228.2067      2383.5039     -3.7069616    
   5940000   302.23313     -1503.1355      1289.1566      2488.7198      19.43794     
   5945000   301.70978     -1511.7171      1185.3024      2371.604       10.346306    
   5950000   299.64757     -1539.672       1275.0311      2414.9366     -1.4505056    
   5955000   298.90057     -1525.9548      1253.3693      2400.3119      2.0405639    
   5960000   303.49578     -1534.0309      1262.6152      2442.5742     -6.1346494    
   5965000   306.63665     -1522.9196      1263.5403      2482.6975      3.3213906    
   5970000   301.88398     -1500.3022      1281.3581      2480.6323      4.6506858    
   5975000   296.54457     -1497.9384      1281.708       2435.5987      4.2045591    
   5980000   298.88764     -1520.9084      1276.6349      2428.5083      8.3611783    
   5985000   301.52204     -1532.3237      1263.719       2427.735       14.780711    
   5990000   300.08204     -1503.0952      1270.9966      2451.3642      2.7600271    
   5995000   306.22075     -1519.3467      1295.7088      2514.7197      0.025495194  
   6000000   299.99747     -1554.875       1243.2081      2371.0396     -13.134653    
   6005000   287.72773     -1499.8895      1232.3019      2305.3975      0.59162186   
   6010000   299.22336     -1509.7998      1243.4615      2409.4457      3.2075938    
   6015000   296.17023     -1540.1523      1290.3653      2398.6946     -11.472187    
   6020000   296.53946     -1554.6238      1273.9444      2371.104      -5.7247334    
   6025000   306.7765      -1515.3387      1268.9936      2496.9823      7.2834645    
   6030000   309.83116     -1520.3296      1269.9573      2520.2712      10.700228    
   6035000   293.95556     -1523.07        1261.7831      2367.3902      19.372429    
   6040000   301.33867     -1505.8257      1301.4643      2490.3387      17.743684    
   6045000   306.04471     -1512.3581      1287.2069      2511.6323      10.102966    
   6050000   301.26921     -1518.7124      1270.7515      2446.118       8.724301     
   6055000   305.85967     -1536.5534      1249.334       2447.9094      1.6356856    
   6060000   299.64509     -1534.418       1312.3719      2457.5091      14.863948    
   6065000   297.83342     -1554.2295      1183.7455      2292.8705      3.9568092    
   6070000   303.10718     -1534.8381      1249.1223      2424.799       20.14484     
   6075000   299.70991     -1521.137       1269.5923      2428.5902     -1.4951555    
   6080000   295.62259     -1502.5171      1255.4917      2396.559       24.511592    
   6085000   302.04607     -1482.4432      1345.2916      2563.8743      5.9605829    
   6090000   307.88965     -1462.9052      1299.6883      2590.0648      8.2395736    
   6095000   310.4148      -1451.4201      1267.4156      2591.8581      7.3302768    
   6100000   300.14394     -1445.2402      1294.2299      2533.0059     -5.3835742    
   6105000   299.25613     -1501.1398      1243.6717      2418.609       3.104036     
   6110000   306.81482     -1490.1057      1268.912       2522.4763     -8.2806908    
   6115000   305.05445     -1519.2226      1255.4019      2464.1075      8.2834046    
   6120000   302.58067     -1516.5522      1207.9516      2397.206      -1.4160984    
   6125000   298.78544     -1503.2464      1322.7285      2491.35        2.0233941    
   6130000   300.77087     -1479.525       1228.0618      2438.1592      28.284219    
   6135000   291.83369     -1438.9356      1255.4348      2426.2017      6.3171001    
   6140000   303.932       -1469.6052      1265.7978      2514.0832      0.96448481   
   6145000   292.09025     -1444.8937      1270.8076      2437.9105     -5.3812403    
   6150000   302.61217     -1435.9173      1248.4534      2518.6243      9.8166139    
   6155000   303.74298     -1469.1907      1294.9689      2541.9785      6.7501438    
   6160000   296.39993     -1455.6102      1256.0426      2450.9681      1.427095     
   6165000   301.07444     -1455.8205      1212.1141      2448.6308      6.8630887    
   6170000   297.80765     -1435.6426      1211.4611      2438.9427     -5.5716006    
   6175000   295.8361      -1447.7364      1252.6316      2450.3889     -10.223492    
   6180000   296.92772     -1474.1403      1298.7016      2479.8167      2.3289335    
   6185000   295.32831     -1448.1386      1251.6959      2444.51        8.7695683    
   6190000   304.23745     -1447.6775      1259.6319      2532.5765      5.3580463    
   6195000   306.41231     -1483.705       1245.0933      2501.459       23.693059    
   6200000   296.59558     -1489.1725      1215.8934      2379.0061      9.0081251    
   6205000   299.18861     -1490.4831      1293.9464      2478.9365      18.097499    
   6210000   299.80952     -1512.0726      1297.9272      2466.8802      15.264133    
   6215000   305.35179     -1493.6603      1261.8329      2498.7597      7.3866531    
   6220000   306.2256      -1464.0362      1283.6774      2558.0422     -0.58457792   
   6225000   309.89305     -1454.3922      1228.2449      2545.0497     -2.2881253    
   6230000   300.29444     -1428.4504      1258.8247      2515.7364      7.3672908    
   6235000   297.38255     -1450.79        1309.0527      2517.5855     -5.7062613    
   6240000   298.57208     -1447.0713      1228.0489      2450.9375      15.178081    
   6245000   305.38103     -1455.3208      1238.3454      2513.8732      12.199042    
   6250000   298.61355     -1438.895       1248.2768      2479.7126     -0.045611959  
   6255000   301.08871     -1408.5238      1249.6478      2533.5889      6.1645724    
   6260000   302.19599     -1454.4704      1234.1264      2482.0227     -1.3435981    
   6265000   302.8813      -1442.3466      1264.5481      2530.6964      24.226977    
   6270000   299.8611      -1442.4757      1283.524       2522.5352      6.3864632    
   6275000   297.04247     -1460.1527      1253.6985      2449.8274      10.926493    
   6280000   297.75388     -1449.967       1288.7335      2501.4097     -1.3504808    
   6285000   299.69295     -1458.4033      1320.4867      2542.0667      14.10471     
   6290000   294.10693     -1443.9784      1302.4694      2488.5216      7.6701811    
   6295000   301.69516     -1427.136       1296.3211      2567.073       16.75042     
   6300000   305.74564     -1449.2104      1304.468       2589.3666      10.654192    
   6305000   301.5942      -1418.2744      1243.3216      2522.0322      9.2780511    
   6310000   301.65993     -1405.5391      1337.4855      2629.5193      11.368109    
   6315000   302.08759     -1430.9213      1260.9862      2531.462       0.66736162   
   6320000   302.04308     -1415.3005      1291.5794      2577.2781      2.3585987    
   6325000   307.12967     -1412.5992      1271.966       2605.8524      1.1764971    
   6330000   302.37755     -1453.8904      1226.5492      2476.6489     -1.6241838    
   6335000   302.02119     -1444.9788      1253.18        2509.0046     -7.7018406    
   6340000   306.29512     -1386.4022      1287.2369      2639.8574      23.460738    
   6345000   300.18897     -1417.8537      1285.4019      2551.967       8.2541089    
   6350000   299.24373     -1364.8236      1285.2824      2596.425       12.465792    
   6355000   300.04157     -1364.5959      1255.1164      2573.6213      16.678585    
   6360000   294.98142     -1373.0581      1260.3932      2525.1858     -1.9122799    
   6365000   300.06273     -1388.8822      1236.4505      2530.8583     -3.2994181    
   6370000   302.02616     -1434.0017      1262.9545      2529.8006     -14.253079    
   6375000   293.51335     -1394.7883      1305.4194      2535.3537      15.077084    
   6380000   292.36521     -1427.3221      1220.8135      2407.9468      4.9770236    
   6385000   296.50259     -1427.5447      1221.4979      2445.4069      5.0176637    
   6390000   295.34363     -1421.7196      1185.6092      2404.9794      16.291421    
   6395000   305.64157     -1428.2184      1249.1653      2554.1253      12.909335    
   6400000   297.47505     -1404.9551      1252.6083      2507.8031      17.724123    
   6405000   299.35316     -1436.3607      1282.872       2523.456       0.55174515   
   6410000   292.38472     -1471.2647      1262.3675      2405.7327     -12.572607    
   6415000   293.60537     -1454.6827      1250.5781      2421.4409     -14.607192    
   6420000   294.30801     -1409.9133      1268.1469      2490.0625     -10.87591     
   6425000   305.56737     -1437.8388      1223.7244      2518.4005     -3.6267246    
   6430000   298.61067     -1424.028       1261.1154      2507.3924      24.801636    
   6435000   299.58514     -1413.1291      1221.2355      2487.1256      17.723856    
   6440000   295.57811     -1420.6615      1252.1285      2474.6537      18.512288    
   6445000   297.31174     -1411.0502      1266.7233      2514.3626     -4.0248763    
   6450000   293.65909     -1438.9517      1256.4742      2443.5484      12.355015    
   6455000   303.35787     -1432.2018      1288.4909      2569.0457     -5.0777156    
   6460000   298.49178     -1442.5374      1248.8434      2475.5479      14.739221    
   6465000   294.75918     -1444.1789      1238.656       2430.3405      7.7197035    
   6470000   300.37407     -1430.3486      1277.6133      2533.3389      9.0809295    
   6475000   308.2644      -1416.8842      1260.2275      2599.9762     -1.2480335    
   6480000   307.58063     -1436.073       1257.1608      2571.6061     -0.82611316   
   6485000   301.82635     -1435.7699      1227.1334      2490.4245     -1.2369622    
   6490000   300.94691     -1446.6548      1272.5584      2517.1004      4.0561642    
   6495000   295.48493     -1439.585       1300.6365      2503.4049      3.0821781    
   6500000   302.3846      -1426.9148      1303.9067      2581.045      -4.5058928    
   6505000   299.98069     -1393.5196      1200.4737      2489.5105      15.054622    
   6510000   300.77055     -1451.257       1255.9044      2494.267       11.180084    
   6515000   300.34507     -1433.1777      1314.7329      2567.3701      0.095873064  
   6520000   297.07637     -1431.4863      1243.4292      2468.5276      6.3397222    
   6525000   302.5409      -1431.4552      1306.7426      2580.7382      26.709342    
   6530000   300.37902     -1441.8085      1301.3016      2545.6115      10.750908    
   6535000   299.50957     -1453.0596      1275.1639      2500.4477      5.7639494    
   6540000   305.50278     -1443.3599      1261.2659      2549.8432      22.021485    
   6545000   308.99057     -1442.0189      1257.0845      2578.1921     -3.3784379    
   6550000   297.50491     -1482.4958      1303.3974      2481.3184      0.70823573   
   6555000   293.18506     -1479.7751      1292.9148      2434.9266     -10.701471    
   6560000   298.25607     -1473.6833      1264.412       2457.8628      4.1668179    
   6565000   303.41055     -1479.5589      1287.2646      2520.9333      10.911062    
   6570000   303.95067     -1500.3659      1261.5902      2479.2819      12.973978    
   6575000   298.70647     -1496.0068      1260.8311      2435.986       1.7856506    
   6580000   295.70847     -1506.8925      1255.3052      2392.7651      8.3521081    
   6585000   294.64077     -1518.5563      1256.777       2373.0253      24.471098    
   6590000   302.7772      -1488.4209      1279.6423      2498.7854      6.4579414    
   6595000   305.62239     -1480.9036      1258.0149      2510.1182      6.6804145    
   6600000   301.94026     -1456.6537      1255.1362      2498.5623      3.9922665    
   6605000   301.71495     -1464.5901      1242.7818      2476.2565      13.875307    
   6610000   294.85579     -1469.7695      1251.7115      2418.6693     -5.2633349    
   6615000   302.43059     -1464.5701      1287.7788      2527.6731     -1.1560109    
   6620000   299.72443     -1494.0056      1233.8917      2420.1509      0.779664     
   6625000   301.22124     -1464.5313      1268.604       2497.7226      17.631443    
   6630000   304.42727     -1427.0411      1308.5204      2603.7989      4.5842002    
   6635000   292.82321     -1397.1732      1225.7771      2447.155       22.61472     
   6640000   297.46104     -1410.137       1257.9179      2507.8054      13.803117    
   6645000   305.45648     -1428.258       1248.7544      2552.0196      11.101866    
   6650000   306.63332     -1471.113       1243.2012      2514.1353     -2.1192975    
   6655000   293.67347     -1432.5959      1245.952       2439.5106     -4.1428741    
   6660000   299.35509     -1432.0146      1272.2248      2517.1723     -2.1304344    
   6665000   310.02891     -1434.9627      1268.219       2605.6682      15.716187    
   6670000   307.33685     -1413.9528      1237.2606      2571.6461      30.470717    
   6675000   309.44405     -1456.7386      1246.9245      2557.3677      25.209326    
   6680000   301.05572     -1466.027       1271.8236      2497.9662      22.085537    
   6685000   296.85716     -1472.2245      1232.801       2415.201       13.714792    
   6690000   301.65291     -1445.2504      1251.2228      2503.4825      20.936705    
   6695000   302.37025     -1433.7604      1256.1786      2526.3431     -7.4485067    
   6700000   293.72028     -1453.8331      1256.4732      2429.2131      15.850016    
   6705000   307.32811     -1491.1721      1210.5609      2467.6489      14.351366    
   6710000   289.63682     -1516.3711      1285.912       2359.5979     -1.2882272    
   6715000   298.9183      -1477.4167      1273.2867      2468.9261     -6.9557138    
   6720000   302.26169     -1481.6188      1228.9269      2450.2622     -7.2190227    
   6725000   298.50492     -1469.8418      1243.7212      2443.2388     -1.9934842    
   6730000   294.22957     -1451.4658      1188.2732      2367.9348     -1.4427331    
   6735000   294.1878      -1457.0794      1241.1546      2414.829       1.3772059    
   6740000   297.99546     -1442.6809      1262.3472      2484.4699      3.4105283    
   6745000   292.71564     -1412.3402      1289.3999      2494.6489      13.940673    
   6750000   312.08113     -1431.6913      1279.052       2638.1244      17.839165    
   6755000   297.56157     -1431.3774      1278.1353      2507.6815      14.336538    
   6760000   301.85942     -1436.9287      1287.8969      2550.3249     -2.5950249    
   6765000   305.41511     -1428.4897      1267.2541      2569.9178      16.203185    
   6770000   296.87652     -1439.0755      1277.0183      2492.7404      10.129115    
   6775000   304.61139     -1426.4257      1308.9314      2606.4718      0.035186555  
   6780000   300.12712     -1407.5863      1270.638       2546.9176      5.8545871    
   6785000   297.4017      -1395.5786      1245.908       2509.8234      12.60716     
   6790000   301.69541     -1401.4133      1254.0528      2550.5297     -6.4557691    
   6795000   295.49223     -1418.3245      1316.1862      2540.2804      6.1854585    
   6800000   298.01389     -1411.8573      1276.5942      2529.7054     -8.4654888    
   6805000   296.98027     -1401.9007      1274.933       2528.7576      9.8972276    
   6810000   302.47892     -1422.9134      1260.8568      2542.84        7.2814189    
   6815000   298.59086     -1429.4921      1260.7553      2501.3911      9.0767277    
   6820000   296.61596     -1393.5318      1224.4656      2483.4014      7.3754894    
   6825000   293.86328     -1428.9365      1244.7009      2443.6163     -23.59203     
   6830000   294.14332     -1449.6188      1223.6477      2404.3851     -13.774954    
   6835000   299.89016     -1442.4481      1246.459       2485.7577      4.6045271    
   6840000   295.47745     -1489.7264      1278.9481      2431.5081     -6.9196703    
   6845000   294.43002     -1475.6198      1294.0672      2451.3674     -18.726241    
   6850000   300.34654     -1479.8833      1267.4592      2473.4039      3.8466458    
   6855000   305.16165     -1460.6603      1195.5283      2463.7548     -1.2354994    
   6860000   302.79452     -1506.7135      1282.7497      2483.755       17.267731    
   6865000   300.04801     -1454.5929      1269.9603      2498.5258      20.271127    
   6870000   301.15444     -1475.3688      1249.1513      2466.8349     -1.4434795    
   6875000   299.61648     -1467.0346      1242.8302      2455.0951     -11.375018    
   6880000   302.29659     -1479.5121      1298.9584      2522.7125      25.969411    
   6885000   294.60221     -1490.7288      1249.2924      2393.0233      5.3681053    
   6890000   294.51373     -1484.8755      1253.5951      2402.388       2.5650366    
   6895000   304.061       -1493.9149      1283.3863      2508.5157     -0.83751038   
   6900000   298.48689     -1478.3932      1252.7202      2443.5251      2.8364389    
   6905000   296.69041     -1462.2974      1249.6137      2440.4497     -2.2042291    
   6910000   308.4502      -1435.3959      1226.4521      2549.3506      9.8839417    
   6915000   303.50634     -1477.2623      1328.1156      2564.9375      6.9017939    
   6920000   300.71447     -1465.0234      1250.4099      2474.5047      10.474422    
   6925000   295.75394     -1499.6864      1264.2189      2409.2915      10.20238     
   6930000   301.0853      -1495.7683      1266.7063      2463.3723      7.4989854    
   6935000   300.16518     -1500.6522      1284.5859      2468.1399     -3.7546531    
   6940000   298.7882      -1473.4712      1217.488       2415.9094      16.336226    
   6945000   295.44127     -1481.8485      1230.8746      2390.989       5.5112528    
   6950000   292.71325     -1506.582       1282.7024      2393.6882      2.0496464    
   6955000   302.64569     -1502.4064      1225.1112      2429.0926      12.827708    
   6960000   294.37561     -1542.0528      1281.176       2371.5565     -4.0535876    
   6965000   296.43726     -1530.3617      1296.1302      2416.638       23.603768    
   6970000   298.78895     -1500.9574      1250.6065      2421.5484      22.105368    
   6975000   294.68649     -1478.9488      1240.2517      2396.5163     -6.5405303    
   6980000   296.53368     -1474.5723      1271.9256      2449.085       12.180491    
   6985000   292.34545     -1475.1754      1287.1883      2426.2917     -10.085394    
   6990000   298.32173     -1456.9033      1261.1292      2471.9471      6.0408076    
   6995000   299.30752     -1436.4165      1297.6391      2537.7591      6.6020932    
   7000000   302.65216     -1428.2854      1213.7753      2491.9357      14.730056    
   7005000   309.14116     -1444.8879      1246.6914      2566.2767      12.73773     
   7010000   304.43852     -1492.4655      1245.6377      2475.5924     -2.3219798    
   7015000   305.12299     -1468.8446      1237.4167      2497.1131      3.1030842    
   7020000   303.02217     -1497.4823      1248.7906      2461.0628      3.4929298    
   7025000   308.84545     -1496.2138      1241.2091      2506.8242      17.33811     
   7030000   293.06633     -1477.2951      1252.1692      2395.5993      11.62821     
   7035000   305.24771     -1462.9643      1289.4052      2556.0972     -13.770583    
   7040000   300.39248     -1469.6082      1255.8466      2472.4772      12.536926    
   7045000   302.55027     -1474.178       1288.7364      2520.0931     -1.1910956    
   7050000   301.99136     -1493.3645      1309.1676      2516.3397      2.5843451    
   7055000   298.57605     -1488.511       1253.5255      2435.0101      2.8459059    
   7060000   296.51331     -1471.9158      1274.8097      2454.4435     -0.36313296   
   7065000   299.27019     -1469.8014      1328.0135      2534.4149      13.349921    
   7070000   300.74851     -1490.9541      1276.8067      2475.2752      8.0971638    
   7075000   297.06564     -1488.0786      1242.0598      2410.4699      14.756797    
   7080000   293.43012     -1469.1457      1252.0575      2406.8902     -7.482836     
   7085000   310.37338     -1506.0398      1270.8219      2540.2744      1.4786701    
   7090000   299.22697     -1480.9508      1267.8651      2462.7307      7.5312714    
   7095000   292.71724     -1485.0624      1291.469       2424.01        1.580209     
   7100000   298.93731     -1471.6565      1266.9883      2468.5578      2.5483339    
   7105000   295.32565     -1483.94        1231.7967      2388.7858      3.230644     
   7110000   299.24162     -1479.5389      1251.0356      2447.4439      9.7182362    
   7115000   292.11715     -1442.4637      1262.1289      2431.9025     -3.5746907    
   7120000   288.69201     -1515.0116      1263.8488      2330.4454     -14.169048    
   7125000   300.28508     -1471.8974      1274.4291      2487.81       -2.8964955    
   7130000   300.80242     -1469.4009      1250.4379      2470.9417      2.6686263    
   7135000   297.30609     -1469.1615      1275.8078      2465.2852     -9.8362495    
   7140000   302.64484     -1433.3109      1257.0367      2530.1061      11.506268    
   7145000   297.74026     -1436.0993      1291.4265      2517.8487     -3.6085585    
   7150000   293.99757     -1446.6408      1265.9356      2448.3476      31.6928      
   7155000   293.14715     -1455.3834      1283.0998      2449.1643     -8.6513326    
   7160000   293.14721     -1440.7727      1245.7421      2426.4178     -2.8243035    
   7165000   295.60649     -1463.991       1275.3392      2454.7886      12.693968    
   7170000   305.19671     -1475.9476      1254.4022      2507.6548      10.865943    
   7175000   294.16836     -1469.2233      1304.4528      2465.8096      9.3493028    
   7180000   301.16061     -1472.1812      1253.897       2474.8235     -10.478002    
   7185000   306.86222     -1487.1397      1292.4951      2549.4494      6.9892819    
   7190000   302.50415     -1491.8214      1287.6573      2500.9581     -3.3572929    
   7195000   306.28502     -1477.8723      1284.9482      2546.0084      3.5584206    
   7200000   309.42877     -1467.1791      1283.256       2583.122       8.4785327    
   7205000   304.44806     -1456.6157      1261.2167      2527.1066     -14.023742    
   7210000   299.19559     -1448.1549      1262.1675      2489.5482     -1.4150681    
   7215000   291.57129     -1397.7209      1235.9993      2445.6344      3.4651627    
   7220000   302.74569     -1429.8686      1275.8824      2553.296       10.315053    
   7225000   294.05945     -1476.4803      1279.8232      2432.949       14.970842    
   7230000   302.48099     -1477.7551      1240.6348      2467.7949      19.28092     
   7235000   302.06903     -1520.1792      1215.4414      2396.4935      22.538471    
   7240000   295.36947     -1495.1759      1249.7701      2395.9151      8.8311212    
   7245000   303.31109     -1540.4222      1298.9185      2470.8346      18.84751     
   7250000   295.75813     -1530.8387      1255.0228      2368.9804      3.7529644    
   7255000   305.45711     -1528.5837      1201.5762      2404.5213      16.119135    
   7260000   301.89985     -1516.4701      1316.455       2499.7032     -1.2107337    
   7265000   300.2921      -1490.0795      1267.6691      2462.9307     -8.2244836    
   7270000   309.23753     -1529.9724      1248.03        2483.3926     -9.4879355    
   7275000   301.34643     -1532.5304      1256.9384      2419.1774      19.354268    
   7280000   300.26605     -1544.8184      1247.6688      2387.9586      1.8752198    
   7285000   300.5371      -1515.8319      1263.6188      2435.3189      11.324387    
   7290000   298.80518     -1550.1958      1318.1304      2439.979       8.4438653    
   7295000   302.79907     -1555.2233      1234.7087      2387.2449     -4.0829471    
   7300000   299.91978     -1499.328       1287.7261      2470.4098     -7.1645701    
   7305000   295.61306     -1491.6584      1293.5629      2445.4036      33.444722    
   7310000   293.82898     -1515.2311      1254.9915      2367.3056     -6.3054893    
   7315000   298.82974     -1529.6558      1253.5716      2396.1799     -10.257833    
   7320000   304.37748     -1563.4524      1259.1575      2417.5795      24.625216    
   7325000   299.09044     -1488.9161      1250.393       2436.0722      25.431732    
   7330000   302.83548     -1508.3737      1299.4065      2499.1179      28.004325    
   7335000   308.30459     -1497.9067      1248.6675      2507.7532      5.9462959    
   7340000   301.27988     -1509.9358      1233.3152      2417.5536     -1.8407084    
   7345000   297.65778     -1512.9609      1251.7276      2400.5506      0.72271717   
   7350000   304.89155     -1502.4279      1290.6627      2514.7061      6.3294445    
   7355000   304.79616     -1524.5637      1252.5019      2453.5566      4.0934672    
   7360000   298.48909     -1522.4907      1266.244       2412.9711     -2.3346176    
   7365000   296.26787     -1439.254       1262.03        2472.1307      14.352151    
   7370000   298.23605     -1465.6508      1258.1459      2459.4502      9.3146935    
   7375000   297.13523     -1454.2055      1275.7496      2478.6552      7.8405225    
   7380000   295.28139     -1432.2104      1259.9564      2468.2791     -2.9252877    
   7385000   298.04341     -1432.2276      1249.6264      2482.6311      20.98189     
   7390000   290.2828      -1467.5432      1190.1933      2318.4839      17.939462    
   7395000   304.32718     -1453.3861      1279.189       2547.2274      17.477387    
   7400000   295.58961     -1469.1132      1285.8055      2459.9817     -1.9681771    
   7405000   304.30067     -1464.6649      1268.9274      2525.4499      15.051301    
   7410000   294.31406     -1456.193       1292.3277      2468.0176      6.0053729    
   7415000   298.70589     -1444.0328      1305.4577      2532.5815     -11.235597    
   7420000   298.84251     -1471.082       1283.3056      2484.6019      3.3404512    
   7425000   299.5584      -1449.7781      1233.9968      2462.9988      5.3672918    
   7430000   300.50728     -1448.9298      1252.9476      2491.2831      10.160953    
   7435000   299.52382     -1403.2947      1285.0296      2560.2057     -3.175447     
   7440000   296.05335     -1410.8561      1286.4859      2523.0662      12.758981    
   7445000   300.65514     -1400.3259      1239.8251      2528.0868     -9.5324689    
   7450000   297.59038     -1387.3852      1262.307       2536.103       11.871854    
   7455000   298.08017     -1400.498       1236.2885      2501.3516     -1.4989204    
   7460000   303.09419     -1394.568       1286.628       2602.4586     -24.172869    
   7465000   299.73835     -1379.2231      1281.1704      2582.3366      8.1422788    
   7470000   298.77157     -1390.6945      1259.337       2540.3864      19.814242    
   7475000   295.59354     -1409.2238      1225.4157      2459.5164      7.3339353    
   7480000   294.24292     -1394.0249      1299.5106      2536.7325      4.7385496    
   7485000   301.16891     -1372.3483      1304.1107      2624.9443     -1.4840772    
   7490000   300.76273     -1422.1251      1237.0603      2504.485       8.2552745    
   7495000   298.92399     -1405.8525      1313.3269      2580.5812     -4.6199262    
   7500000   304.48966     -1439.1322      1258.8399      2542.5852      4.8884737    
   7505000   301.41588     -1414.5977      1269.3543      2550.1471      4.0071428    
   7510000   300.12322     -1454.868       1262.7528      2491.7158      10.699584    
   7515000   305.97466     -1500.765       1218.7744      2454.1663      17.026637    
   7520000   303.64108     -1480.5994      1268.5514      2503.2412     -7.8033413    
   7525000   299.87595     -1504.4646      1284.359       2461.5142      20.551422    
   7530000   296.50541     -1519.2773      1266.6025      2398.8041      2.803753     
   7535000   298.97285     -1480.5503      1218.2365      2411.2301      6.1205928    
   7540000   300.09091     -1497.7069      1224.9669      2410.802       15.717453    
   7545000   308.12083     -1506.787       1284.4304      2532.9924      17.611807    
   7550000   302.61434     -1484.4672      1237.8338      2459.4741      0.34448041   
   7555000   298.6183      -1490.1087      1238.6591      2418.9237     -5.6697178    
   7560000   299.7117      -1478.8391      1275.2508      2476.5625     -4.8135921    
   7565000   303.88791     -1493.7373      1282.0598      2505.819      -0.41540512   
   7570000   306.85739     -1487.3643      1247.5557      2504.2422      6.0213288    
   7575000   298.47844     -1455.9977      1276.258       2489.3828      3.8420202    
   7580000   300.68628     -1487.7829      1247.7642      2448.8473     -0.74278165   
   7585000   299.53859     -1493.1261      1195.324       2380.8009      8.7650827    
   7590000   300.46075     -1484.9663      1265.027       2466.9101      18.800796    
   7595000   300.08104     -1488.8799      1266.5781      2461.1519      23.749454    
   7600000   302.18223     -1481.1428      1282.9405      2504.0412     -7.8054015    
   7605000   308.22735     -1433.7805      1201.7556      2524.2766      17.782015    
   7610000   306.49277     -1397.0911      1288.5847      2632.2838      6.4124344    
   7615000   305.84737     -1413.1321      1197.7244      2519.611       13.034589    
   7620000   308.49667     -1395.5971      1267.8708      2630.9837      12.509329    
   7625000   302.40472     -1438.3721      1286.1767      2552.0377      28.141597    
   7630000   306.96258     -1424.3929      1285.5639      2606.1625      12.208573    
   7635000   303.55884     -1452.2005      1279.2117      2541.565      -0.084366042  
   7640000   299.5748      -1451.3852      1244.3761      2471.9176      8.5876685    
   7645000   297.83846     -1427.3426      1304.0907      2540.1477     -1.5354312    
   7650000   299.09404     -1442.6826      1263.3966      2495.3415      22.759629    
   7655000   304.17338     -1449.4461      1283.7252      2554.3283      16.041556    
   7660000   299.01235     -1489.7896      1259.2116      2443.319       15.274115    
   7665000   300.70013     -1464.1254      1271.7903      2496.6548      9.114309     
   7670000   298.2647      -1471.9974      1278.4363      2473.6502      14.915324    
   7675000   305.68279     -1474.5283      1193.0821      2452.1008      24.980253    
   7680000   303.4047      -1430.1385      1278.2007      2561.2375      10.496255    
   7685000   301.8288      -1437.7243      1278.2667      2539.6253     -3.6358066    
   7690000   297.96277     -1404.7028      1258.8278      2518.6362     -7.8726302    
   7695000   302.35548     -1432.7293      1265.4668      2536.5303      2.1936412    
   7700000   299.05849     -1407.0294      1241.9102      2509.1904     -0.23538197   
   7705000   297.75249     -1406.3189      1279.5132      2535.8251      7.5155576    
   7710000   304.8094      -1429.8629      1312.8851      2608.7589     -7.4807005    
   7715000   299.16667     -1442.9878      1280.4292      2512.7185      14.434249    
   7720000   292.61917     -1464.3386      1273.5324      2425.9202      11.838058    
   7725000   309.05042     -1488.3458      1257.9927      2533.3087     -3.7168929    
   7730000   302.89226     -1457.0677      1284.1955      2535.7207      0.74886772   
   7735000   301.45904     -1465.3272      1238.0955      2468.5447      9.2593915    
   7740000   293.67067     -1423.7239      1219.4029      2421.8084      5.0555939    
   7745000   297.01841     -1469.6252      1233.7597      2420.2009      16.59671     
   7750000   301.65374     -1460.0859      1219.6239      2457.0555      1.2015976    
   7755000   298.34058     -1482.5446      1240.4218      2425.767       11.744228    
   7760000   303.37388     -1455.3945      1247.3653      2504.8706      29.570069    
   7765000   304.61925     -1433.7952      1309.845       2600.0862     -0.020492655  
   7770000   295.46552     -1438.7908      1312.3767      2515.7657      10.164779    
   7775000   307.53587     -1427.7302      1276.459       2598.8469      1.6330098    
   7780000   302.29572     -1397.9758      1229.0881      2534.3707     -0.45699019   
   7785000   304.04887     -1422.4219      1240.2348      2536.7488      9.5142544    
   7790000   304.85555     -1429.2981      1259.9869      2556.8383      12.927776    
   7795000   297.88975     -1435.5874      1275.2698      2503.5407      7.3641979    
   7800000   299.00696     -1452.5038      1311.1138      2532.4588      11.540257    
   7805000   298.26413     -1423.156       1212.7714      2456.8216      11.624466    
   7810000   302.67325     -1439.6117      1299.6737      2566.6964      7.1202049    
   7815000   305.35587     -1459.9196      1303.0209      2573.7248     -2.4381765    
   7820000   305.47058     -1406.5165      1258.1142      2583.247       6.0256426    
   7825000   301.15729     -1432.6619      1278.8287      2539.2448     -0.10024899   
   7830000   294.93406     -1411.9912      1256.5401      2481.976      -2.0512445    
   7835000   293.23706     -1422.4211      1272.4839      2472.3148     -12.354352    
   7840000   293.66814     -1421.3649      1246.1253      2450.8673      14.124893    
   7845000   292.00214     -1433.9509      1302.1218      2479.3796      2.8536868    
   7850000   295.7553      -1416.229       1232.6028      2461.1449     -1.2612838    
   7855000   299.05665     -1428.5523      1244.6476      2490.3885      2.52997      
   7860000   300.73904     -1427.7344      1288.4283      2550.0318      10.066318    
   7865000   291.0844      -1416.5229      1252.0239      2438.5029      8.3377931    
   7870000   298.59926     -1467.4394      1274.4337      2477.1974     -7.0267383    
   7875000   292.14188     -1415.4288      1251.4755      2448.505       30.465249    
   7880000   299.71148     -1408.509       1263.693       2535.3329     -10.447811    
   7885000   298.39332     -1386.3724      1237.2156      2519.2046     -0.093725774  
   7890000   294.87713     -1423.8796      1276.7895      2489.8281      7.9469849    
   7895000   302.81851     -1445.15        1232.8267      2495.6101     -7.028035     
   7900000   291.51699     -1433.1039      1267.3547      2441.1211     -18.813278    
   7905000   300.59165     -1437.0728      1259.8602      2510.8071      6.6374666    
   7910000   298.72593     -1439.8427      1261.0966      2492.5897      18.154612    
   7915000   304.21529     -1511.066       1264.263       2473.621       29.595151    
   7920000   295.36413     -1502.2735      1288.307       2427.3065      5.0196181    
   7925000   311.29057     -1496.0958      1282.1208      2569.7191     -12.061912    
   7930000   299.1115      -1441.0677      1259.0196      2492.7356     -4.7641285    
   7935000   305.76556     -1455.7478      1249.7774      2528.3167      5.6483006    
   7940000   305.98244     -1463.4682      1307.3893      2580.1476     -8.3275153    
   7945000   312.27732     -1473.1358      1251.6031      2570.9854      9.3641915    
   7950000   299.67481     -1455.125       1286.3252      2511.0213      13.4385      
   7955000   314.38365     -1471.3532      1264.4951      2604.4957     -2.3790436    
   7960000   299.43        -1449.9342      1216.6441      2444.3417     -7.9998693    
   7965000   299.77571     -1465.9192      1264.3583      2479.1624     -0.79231433   
   7970000   301.76014     -1462.7685      1248.7896      2484.49       -8.251077     
   7975000   295.1815      -1502.3013      1271.1595      2408.4981      13.726444    
   7980000   300.16437     -1463.6228      1256.4088      2476.985       6.019361     
   7985000   302.88083     -1472.1717      1255.3172      2491.6363     -17.735398    
   7990000   298.8475      -1458.4843      1253.6923      2467.6309     -2.7650456    
   7995000   297.31642     -1427.2343      1265.0613      2496.5583      7.7345211    
   8000000   310.72609     -1437.4865      1264.4902      2605.6501      12.0878      
   8005000   300.93243     -1445.5588      1350.6042      2596.1126     -2.6384593    
   8010000   295.66551     -1456.3893      1297.9851      2485.564       22.017401    
   8015000   298.5843      -1378.6801      1253.6533      2545.0425      7.7548846    
   8020000   296.51683     -1375.7694      1296.6666      2572.4782     -1.1393838    
   8025000   296.56236     -1385.4301      1239.538       2506.0961     -4.9143043    
   8030000   307.13169     -1381.6394      1220.8827      2585.747       20.130517    
   8035000   296.18931     -1368.3321      1287.0809      2567.401       8.2362762    
   8040000   301.63731     -1349.8325      1237.5353      2585.0734      8.277944     
   8045000   302.49112     -1394.4751      1280.39        2590.9205     -9.8978969    
   8050000   306.4854      -1419.9383      1238.4805      2559.2665      0.96133234   
   8055000   295.24713     -1430.4534      1290.4118      2500.1854      5.0417555    
   8060000   299.71209     -1449.3284      1242.5506      2473.3765     -1.1116768    
   8065000   298.13972     -1479.3941      1248.6374      2435.337       13.071314    
   8070000   292.88881     -1468.1124      1302.4678      2453.4931     -3.6312364    
   8075000   300.40688     -1506.9322      1209.5328      2388.9681      7.0082682    
   8080000   311.02217     -1476.8682      1231.0398      2535.4656      8.0311056    
   8085000   296.03947     -1469.1518      1264.0165      2442.177       4.0844787    
   8090000   301.17793     -1447.3603      1257.3353      2503.2376      0.72422112   
   8095000   296.53149     -1458.114       1307.04        2500.6381     -0.91366113   
   8100000   303.93607     -1499.9482      1276.9692      2494.9481      6.2725977    
   8105000   298.59015     -1534.0803      1283.6073      2419.6486      22.655155    
   8110000   291.4531      -1524.5014      1268.7435      2350.5411     -6.8814606    
   8115000   305.26334     -1493.4062      1241.0622      2477.452      -1.2600109    
   8120000   300.35        -1498.2748      1248.6793      2436.2634      8.9910473    
   8125000   299.65831     -1490.7636      1264.1108      2453.0207      3.3528359    
   8130000   301.40786     -1514.7222      1286.7049      2467.3015     -2.4086301    
   8135000   299.42028     -1489.1674      1271.3105      2459.688      -7.1436645    
   8140000   301.58136     -1536.9172      1245.6699      2405.623       14.662329    
   8145000   298.74959     -1500.5643      1277.0074      2447.9904     -7.9162611    
   8150000   296.19548     -1535.9033      1256.9521      2369.7561      14.279816    
   8155000   291.83663     -1512.8882      1266.8859      2363.7263      0.73728427   
   8160000   297.78117     -1547.1981      1245.9919      2361.6811      2.5995699    
   8165000   296.3191      -1561.1488      1258.3965      2347.0606      11.656117    
   8170000   297.9968      -1539.2456      1233.0153      2358.5853      2.8892231    
   8175000   304.67333     -1572.7593      1258.2009      2409.9616     -10.504325    
   8180000   298.54227     -1571.9193      1233.6529      2331.427      -2.5186711    
   8185000   300.97323     -1564.7601      1255.9711      2382.6431      1.9329493    
   8190000   299.00842     -1589.5549      1268.7371      2353.0441     -1.5485676    
   8195000   297.02321     -1607.8957      1282.6038      2330.8174      16.269225    
   8200000   308.98316     -1613.0843      1208.3781      2358.3542     -7.9347128    
   8205000   299.503       -1581.2605      1298.1373      2395.1615      15.056634    
   8210000   292.95339     -1561.7665      1278.0833      2336.032       5.2552261    
   8215000   300.31867     -1534.8207      1234.9299      2385.6879      7.9720767    
   8220000   313.35898     -1524.2197      1241.2903      2519.2614      22.858145    
   8225000   300.51225     -1494.3219      1290.6184      2483.6063     -7.9671514    
   8230000   304.78744     -1502.8206      1259.5757      2482.2955     -5.5373606    
   8235000   303.25679     -1483.7894      1247.0291      2475.0923      31.679095    
   8240000   303.27552     -1489.4783      1308.2766      2530.8185     -3.2592384    
   8245000   300.21819     -1524.1391      1294.4308      2454.972       5.6721477    
   8250000   301.71944     -1543.7959      1279.7007      2434.0099      4.2184876    
   8255000   299.08986     -1519.1489      1276.0727      2431.514       0.96603721   
   8260000   302.43277     -1502.9875      1238.7828      2440.2792      8.1966596    
   8265000   302.76004     -1517.4868      1251.4837      2441.4074      7.5696214    
   8270000   295.69544     -1478.0873      1288.0162      2454.1647     -19.050225    
   8275000   298.58997     -1522.4218      1245.5623      2393.2605      13.011842    
   8280000   301.42728     -1513.6364      1313.294       2495.1499      23.144686    
   8285000   296.50087     -1504.6677      1280.262       2427.0326      13.175855    
   8290000   300.63379     -1523.4765      1266.5098      2431.4299      11.964764    
   8295000   298.30554     -1520.3583      1252.0525      2399.2706     -13.140928    
   8300000   296.69754     -1504.8306      1232.7087      2381.0751     -1.5156036    
   8305000   297.15641     -1532.5545      1269.2205      2393.9665     -12.460933    
   8310000   300.62776     -1508.2135      1279.3435      2459.4727      6.7416556    
   8315000   300.2913      -1504.3404      1257.7207      2438.7143     -7.0646579    
   8320000   299.76436     -1520.4842      1281.0836      2441.2212      4.2648752    
   8325000   304.35963     -1491.5959      1315.0915      2545.2104      8.1889778    
   8330000   296.88942     -1528.3436      1261.1212      2387.6905     -11.614317    
   8335000   300.68968     -1534.4702      1268.6565      2423.0828      11.222097    
   8340000   300.19829     -1477.8593      1285.5745      2492.2175      20.45752     
   8345000   302.56534     -1518.9079      1256.0336      2442.7952      9.3330105    
   8350000   293.13567     -1538.5469      1217.5909      2300.3893      9.5040925    
   8355000   301.24        -1540.8051      1254.4158      2407.4284      12.05904     
   8360000   303.44812     -1572.9599      1262.8879      2403.4916      23.193984    
   8365000   301.15432     -1596.8496      1280.8511      2377.0529      4.4348184    
   8370000   310.11643     -1536.9165      1248.9262      2485.2042     -3.4006506    
   8375000   298.38609     -1560.4782      1229.9795      2337.7981      8.631975     
   8380000   300.15851     -1515.4294      1281.0709      2449.7881      7.6401813    
   8385000   294.2617      -1521.8665      1302.8306      2412.3788      7.7071059    
   8390000   299.08602     -1507.3292      1257.0288      2424.2554      10.020068    
   8395000   297.97534     -1510.7306      1288.3097      2442.2028      13.229105    
   8400000   293.69595     -1491.6838      1217.9885      2352.6602      9.3750403    
   8405000   297.77332     -1510.9696      1270.4808      2422.3284     -7.4617805    
   8410000   308.09616     -1503.9566      1235.8032      2486.975       24.592604    
   8415000   299.03417     -1465.495       1251.8246      2460.4218      2.761544     
   8420000   301.06307     -1491.5283      1249.5947      2450.3019      5.2020594    
   8425000   289.50223     -1490.163       1265.0139      2363.7043     -0.021768318  
   8430000   305.95567     -1481.1676      1202.8602      2457.6798      23.135421    
   8435000   301.85493     -1440.6599      1283.2249      2541.8816      8.0470159    
   8440000   303.34681     -1464.251       1252.487       2500.8937      6.2707268    
   8445000   296.05388     -1458.3335      1258.6358      2447.7434     -9.5283623    
   8450000   301.35423     -1401.0507      1196.4099      2490.1983      2.4302027    
   8455000   303.21657     -1417.2825      1261.1988      2555.4093      7.9876894    
   8460000   297.6386      -1379.6652      1277.4836      2559.4307      22.226493    
   8465000   299.64916     -1386.8543      1287.1199      2579.8573      3.2152307    
   8470000   300.06117     -1371.9663      1270.882       2582.1918     -2.2840979    
   8475000   304.67791     -1377.8861      1259.6116      2606.2865      0.5157992    
   8480000   302.74474     -1430.0877      1255.1554      2532.3414     -1.9345099    
   8485000   305.77959     -1429.2875      1283.3815      2588.5066      0.6660664    
   8490000   305.62836     -1447.4025      1249.8963      2535.5541     -7.0215465    
   8495000   298.16497     -1465.9572      1269.8378      2470.2         15.034539    
   8500000   300.51326     -1474.3683      1215.9946      2428.9452      15.409627    
   8505000   302.94384     -1475.7719      1284.941       2518.2232      5.7066358    
   8510000   296.64778     -1499.7191      1271.1704      2424.2034      10.052841    
   8515000   306.07168     -1476.2111      1218.7209      2479.5345      11.862808    
   8520000   285.86706     -1480.1792      1307.1094      2383.2764     -5.8289658    
   8525000   302.32595     -1473.3658      1237.7274      2467.8902      14.737343    
   8530000   298.33263     -1451.7263      1294.0418      2510.1342     -8.2583093    
   8535000   302.03215     -1465.9085      1264.3193      2499.3122      13.093364    
   8540000   299.92438     -1462.3569      1271.0315      2490.7274      8.2901503    
   8545000   297.04376     -1428.4538      1353.6419      2581.4812      8.6384087    
   8550000   299.62026     -1450.7377      1293.1243      2521.7199      10.787519    
   8555000   302.63808     -1452.5166      1249.9987      2503.802       11.735669    
   8560000   308.74302     -1481.3042      1264.9359      2544.5446      12.92829     
   8565000   302.21877     -1446.7532      1236.7012      2492.5182      13.206725    
   8570000   291.99133     -1424.2104      1284.1385      2471.0402      6.6144089    
   8575000   296.35693     -1399.8772      1281.4529      2531.7269     -15.067042    
   8580000   302.65598     -1407.8038      1233.2051      2531.8813      9.4679052    
   8585000   304.36021     -1430.5244      1224.4465      2515.642       10.511552    
   8590000   304.50553     -1429.2483      1287.996       2581.7671      4.8028097    
   8595000   306.24623     -1387.599       1265.4708      2616.4572      1.8465195    
   8600000   299.63534     -1425.8399      1305.3768      2559.005      -7.6124443    
   8605000   306.40759     -1416.4996      1250.8331      2574.362       9.1673514    
   8610000   299.96936     -1431.8463      1218.1517      2468.7604     -1.6859522    
   8615000   292.02654     -1453.843       1265.332       2422.9159     -12.805267    
   8620000   304.74568     -1478.634       1244.7521      2491.2851     -0.12346373   
   8625000   295.41086     -1489.9621      1282.7096      2434.4385      0.64420801   
   8630000   298.67437     -1465.3571      1245.3699      2450.8875      24.064129    
   8635000   308.69135     -1416.3544      1243.7216      2587.818      -0.86784387   
   8640000   296.71748     -1414.1081      1239.8277      2479.095       19.824209    
   8645000   295.72845     -1402.56        1263.864       2505.835      -0.59991527   
   8650000   298.23626     -1466.6152      1310.2376      2510.5793      8.4979246    
   8655000   300.50416     -1428.6522      1309.9874      2568.5727     -8.9275644    
   8660000   294.60411     -1435.4967      1216.0296      2415.0096      1.0134336    
   8665000   304.43054     -1451.2542      1275.671       2546.7657     -5.174028     
   8670000   302.16959     -1426.2619      1224.2065      2500.075       5.7885774    
   8675000   291.41924     -1461.7911      1237.3158      2381.5209      24.382807    
   8680000   293.94897     -1448.1576      1228.4386      2408.8992      9.4142099    
   8685000   295.01784     -1487.4517      1278.6736      2429.3984      23.371278    
   8690000   303.97203     -1496.7398      1253.8664      2475.3752      2.7837988    
   8695000   301.83905     -1494.3894      1265.7844      2470.5697     -7.7002493    
   8700000   307.50625     -1469.8717      1277.5397      2557.5212     -5.3170204    
   8705000   298.4266      -1476.9013      1269.2564      2461.0141     -5.1846659    
   8710000   301.78197     -1529.7493      1255.5122      2424.4271      12.655702    
   8715000   300.33226     -1476.1186      1264.2271      2473.8088      1.4388725    
   8720000   299.42121     -1499.3135      1327.5366      2505.7763     -12.257151    
   8725000   299.63449     -1529.3252      1268.5231      2418.6584      2.3044764    
   8730000   301.17415     -1525.6272      1293.8624      2461.464       8.8542314    
   8735000   305.93545     -1511.6577      1280.2661      2504.4148     -1.5821092    
   8740000   303.50512     -1483.6269      1289.627       2520.0735      5.9593162    
   8745000   302.76571     -1505.7973      1246.1602      2447.8241      4.2526422    
   8750000   295.13797     -1482.4944      1259.3719      2416.1281      15.978542    
   8755000   300.76074     -1515.566       1187.0281      2360.994       2.4178409    
   8760000   292.61242     -1468.1853      1274.4241      2422.9049      12.630581    
   8765000   302.47684     -1487.683       1245.0377      2462.2328      18.334599    
   8770000   304.94406     -1524.0767      1288.3545      2491.2187     -2.9969794    
   8775000   294.95544     -1534.8447      1286.9116      2389.6854      3.3347157    
   8780000   303.17024     -1489.6791      1220.619       2442.0186     -10.669171    
   8785000   296.3625      -1521.5302      1295.7732      2424.4439      8.0403734    
   8790000   296.07555     -1563.3726      1292.9966      2377.259       18.024725    
   8795000   296.06925     -1523.4211      1274.4062      2398.5637      2.7847854    
   8800000   306.24988     -1550.0193      1252.4821      2441.081       6.8039647    
   8805000   296.89167     -1495.6845      1231.6933      2390.9418     -5.0551881    
   8810000   299.198       -1470.2448      1236.7065      2442.0189      4.6005035    
   8815000   297.78893     -1484.0452      1281.0338      2459.9453      19.456926    
   8820000   308.89171     -1497.2771      1238.1001      2503.0655      5.6366207    
   8825000   304.05548     -1489.6913      1299.2388      2528.5423      2.9837689    
   8830000   311.74327     -1451.7305      1258.4198      2594.4317     -8.4212191    
   8835000   299.44708     -1418.9469      1302.8614      2561.6991      1.5935804    
   8840000   296.05063     -1449.5961      1252.7849      2450.6008     -5.4251868    
   8845000   304.21525     -1448.5576      1274.2189      2546.0849      1.5736662    
   8850000   295.39799     -1450.5406      1278.3783      2469.4136      19.515656    
   8855000   303.1322      -1433.5675      1242.6557      2519.8267      2.9500279    
   8860000   302.356       -1450.0374      1215.1559      2468.9158      11.362798    
   8865000   300.48585     -1455.0575      1271.0185      2503.0347      13.514105    
   8870000   296.03755     -1457.836       1260.3798      2449.8388      19.47605     
   8875000   302.30212     -1435.3441      1303.0348      2571.0062      13.45124     
   8880000   290.57897     -1448.7711      1293.806       2443.5171      26.746605    
   8885000   302.84957     -1492.9145      1253.7641      2469.0607      5.6380358    
   8890000   296.41055     -1468.6553      1322.7928      2504.7682      2.4607986    
   8895000   294.74518     -1421.5185      1249.1518      2463.3714     -9.6474249    
   8900000   296.39114     -1416.8321      1290.9377      2524.5627      9.3477668    
   8905000   296.594       -1437.7359      1254.9896      2469.5249      8.7038572    
   8910000   294.82664     -1458.636       1240.3091      2418.1397     -0.90115553   
   8915000   294.74599     -1469.6952      1227.0636      2393.1139      9.3984529    
   8920000   292.92042     -1485.7684      1281.4453      2415.0973      4.9083858    
   8925000   303.10064     -1495.6794      1288.3004      2503.0772      0.75606487   
   8930000   297.1771      -1463.651       1253.7422      2447.5767      10.323418    
   8935000   298.23841     -1497.4908      1242.4882      2411.9736     -10.468629    
   8940000   305.53875     -1523.4487      1292.5078      2501.3181      6.0225476    
   8945000   303.47438     -1488.0394      1273.3346      2499.0937     -1.1434347    
   8950000   303.85782     -1487.7021      1252.6748      2482.2         5.2886913    
   8955000   297.94331     -1487.8677      1231.2356      2407.7052     -1.4107397    
   8960000   298.68947     -1472.1079      1282.2415      2481.1432      10.117753    
   8965000   304.70689     -1484.2922      1305.2492      2545.777       1.2537516    
   8970000   301.87672     -1489.6888      1293.2652      2503.0878     -5.7986737    
   8975000   293.65626     -1504.9806      1286.2225      2407.2425     -0.85575341   
   8980000   297.94924     -1532.766       1266.2022      2397.8264     -0.61149552   
   8985000   306.0921      -1531.9485      1216.9187      2422.1775     -11.371269    
   8990000   292.58562     -1556.4499      1256.7178      2316.6944      7.9247521    
   8995000   304.16636     -1490.966       1243.3116      2472.332      -2.0209874    
   9000000   297.52565     -1512.5573      1276.7668      2424.8119     -9.6635914    
   9005000   298.36654     -1502.4899      1242.5667      2408.1987      1.4148101    
   9010000   301.4973      -1511.0272      1279.6456      2464.737       6.7213492    
   9015000   296.11842     -1515.0293      1271.314       2404.303       17.583969    
   9020000   294.60543     -1554.0101      1241.9902      2322.4686     -20.172316    
   9025000   292.02039     -1546.5719      1275.4007      2340.2008      9.3452834    
   9030000   300.2352      -1512.6254      1230.0516      2402.2586     -4.8963527    
   9035000   298.18785     -1555.48        1287.9233      2398.9674      6.1401795    
   9040000   291.17299     -1514.6879      1284.3613      2373.4676      18.820221    
   9045000   305.26984     -1507.2456      1318.1205      2540.7291      11.140862    
   9050000   303.57385     -1507.0936      1237.8125      2445.4069      6.7479078    
   9055000   298.65147     -1505.2086      1218.012       2383.4733      8.371855     
   9060000   303.08205     -1507.0785      1266.4552      2469.6667      11.891958    
   9065000   302.37308     -1516.4768      1292.0487      2479.5221     -13.672169    
   9070000   294.12862     -1555.0604      1264.6449      2339.8092      22.652546    
   9075000   299.48164     -1534.8378      1206.902       2350.1578      7.0165152    
   9080000   304.57905     -1552.5461      1301.7331      2472.8639     -14.64767     
   9085000   302.16018     -1550.5924      1242.0312      2393.4851      20.183128    
   9090000   297.30318     -1519.053       1290.0098      2429.5698      7.2976179    
   9095000   304.34657     -1494.1554      1225.8101      2453.2526      3.8737304    
   9100000   302.22285     -1468.4819      1233.1854      2467.3102     -8.0551734    
   9105000   300.75255     -1490.3089      1257.4774      2456.6272     -4.2999444    
   9110000   302.99356     -1484.1596      1267.9934      2493.3326      6.6650854    
   9115000   307.34195     -1488.4249      1289.9266      2549.8856     -0.14439011   
   9120000   303.74161     -1531.4651      1267.8463      2452.5693      2.7290264    
   9125000   301.20825     -1555.3158      1269.5314      2407.7493      2.7231455    
   9130000   294.71296     -1573.0686      1229.7395      2292.121       10.040375    
   9135000   301.75911     -1590.6443      1291.8333      2399.6488      9.8060688    
   9140000   295.92964     -1545.561       1307.5534      2408.3225      13.96708     
   9145000   307.61747     -1523.4547      1203.0247      2430.4176      10.36802     
   9150000   296.11371     -1532.5058      1232.4802      2347.9506      6.544054     
   9155000   297.79264     -1471.3672      1221.9837      2413.6064      26.673601    
   9160000   304.05597     -1405.0736      1288.6822      2602.6079      18.239633    
   9165000   296.93454     -1452.7368      1232.0336      2434.6132      2.0217875    
   9170000   300.65092     -1464.754       1267.3235      2491.1192      7.8926509    
   9175000   293.35834     -1443.2085      1236.0176      2416.1456      12.395075    
   9180000   300.85961     -1414.0264      1215.824       2492.2136      12.040561    
   9185000   305.26847     -1448.3058      1249.2387      2530.7748      5.7971534    
   9190000   293.1895      -1441.588       1240.5973      2420.8359      18.394155    
   9195000   297.53394     -1433.4719      1296.46        2523.6646      11.59694     
   9200000   306.33399     -1471.3879      1224.1339      2492.1163     -7.5564703    
   9205000   302.17757     -1431.0479      1252.5164      2523.6702     -4.7490154    
   9210000   300.98491     -1420.8224      1277.9153      2548.6295     -9.7211446    
   9215000   302.58191     -1461.2593      1253.0629      2497.6211      15.858635    
   9220000   298.73648     -1457.3682      1257.0968      2471.1587      12.055869    
   9225000   298.40468     -1417.8292      1295.6133      2546.247      -7.5263095    
   9230000   301.20586     -1471.0271      1252.666       2475.1513      3.1755407    
   9235000   303.60444     -1470.7715      1345.1174      2589.3074     -12.184661    
   9240000   298.58391     -1428.7258      1239.5734      2480.9133     -0.93166254   
   9245000   301.42996     -1388.2829      1283.6017      2590.8351      14.169898    
   9250000   297.75745     -1386.1536      1276.6157      2553.1373     -2.8571492    
   9255000   291.17019     -1432.1251      1257.7601      2429.4042      6.3206339    
   9260000   306.35265     -1412.0446      1296.5741      2624.0667      24.240474    
   9265000   293.63115     -1399.7952      1304.3985      2530.3793      6.4408462    
   9270000   303.51108     -1391.2807      1237.8637      2560.7096      6.2743589    
   9275000   300.56149     -1422.4566      1233.1452      2498.4388     -0.33159928   
   9280000   304.908       -1411.5482      1304.57        2619.6403      0.3484031    
   9285000   308.78604     -1462.385       1261.2483      2560.1609      18.763198    
   9290000   302.018       -1472.0521      1252.3438      2481.0666      20.62527     
   9295000   300.14128     -1443.8637      1243.3617      2483.4904      11.263848    
   9300000   293.33011     -1432.7729      1265.4098      2455.721       3.7145676    
   9305000   294.33714     -1427.9523      1299.7538      2503.8909      6.0012872    
   9310000   290.47208     -1393.6343      1258.5459      2462.4379      20.532719    
   9315000   305.02024     -1365.5344      1215.8125      2577.9003      26.738954    
   9320000   300.55826     -1407.4615      1313.3539      2593.6136     -2.175987     
   9325000   298.83703     -1412.4452      1272.992       2532.8761      8.938962     
   9330000   298.1842      -1448.8764      1310.8953      2528.5102     -15.682977    
   9335000   300.30256     -1468.8374      1234.8331      2451.4305     -1.2065139    
   9340000   298.6942      -1464.2718      1240.9759      2447.7561      9.5081521    
   9345000   300.46545     -1482.9523      1224.8188      2428.7578      13.056254    
   9350000   299.38856     -1526.0027      1313.2285      2464.4871      20.058559    
   9355000   300.80561     -1523.9752      1241.3286      2407.2866     -2.1580512    
   9360000   295.2344      -1516.187       1272.3574      2396.2834     -8.980339     
   9365000   293.04546     -1525.9984      1258.0523      2352.5925     -3.3757358    
   9370000   295.0115      -1511.1028      1260.2521      2387.269      -8.747478     
   9375000   293.70596     -1500.4033      1285.9275      2411.9692      10.045356    
   9380000   295.59284     -1517.8071      1263.4985      2389.0097      18.216877    
   9385000   295.81643     -1555.0362      1271.4887      2361.7703      11.872621    
   9390000   303.6609      -1579.365       1278.264       2414.3654     -9.4286393    
   9395000   299.44055     -1596.6351      1234.7033      2315.7945     -4.3766158    
   9400000   297.64816     -1601.9804      1270.073       2329.7905      8.1506846    
   9405000   295.05869     -1550.8653      1252.0472      2339.7236     -2.4545735    
   9410000   306.5079      -1585.0774      1251.2066      2407.0548      9.4552997    
   9415000   299.1769      -1556.8546      1242.0715      2360.5854     -16.946808    
   9420000   303.30779     -1539.7809      1274.5478      2447.0756      12.493979    
   9425000   302.94986     -1563.7436      1324.3257      2469.69        22.877734    
   9430000   299.40393     -1534.4025      1299.2212      2442.2175      0.8131164    
   9435000   306.65986     -1528.2464      1261.8618      2475.8998      12.052838    
   9440000   295.98454     -1514.1104      1285.7468      2418.4574     -9.1110263    
   9445000   303.85121     -1517.1383      1308.3317      2508.3616      2.0909256    
   9450000   290.72722     -1521.8974      1222.9972      2300.9076      17.421337    
   9455000   296.37172     -1548.1239      1274.8204      2376.9799      15.184599    
   9460000   302.87017     -1606.3308      1248.4065      2350.4711     -9.0178245    
   9465000   305.91864     -1598.1085      1231.5198      2369.0674     -5.9803106    
   9470000   301.55746     -1594.0345      1246.3828      2349.0047      19.228009    
   9475000   299.40175     -1584.2891      1271.0316      2364.1217      11.145778    
   9480000   297.92489     -1547.0357      1280.1423      2397.2791      10.691177    
   9485000   297.62032     -1525.4616      1278.3154      2414.3028      8.0309227    
   9490000   296.69397     -1541.7846      1261.0138      2372.3944      7.6962781    
   9495000   295.58907     -1565.0817      1252.4407      2330.6436      14.220441    
   9500000   308.88244     -1557.139       1276.1747      2481.1954      3.9811057    
   9505000   301.34879     -1523.8985      1273.6771      2444.5691      0.63119834   
   9510000   298.27464     -1500.6532      1296.8096      2463.4566      7.7472467    
   9515000   293.88624     -1523.9146      1272.047       2376.1896      17.779398    
   9520000   299.46004     -1492.7941      1265.8414      2450.9478      0.025497969  
   9525000   298.88377     -1496.496       1269.3172      2445.5684      16.821443    
   9530000   299.18761     -1476.4014      1255.9415      2455.0043      8.2063607    
   9535000   300.78797     -1535.7313      1260.7707      2414.8149     -2.6504478    
   9540000   302.46046     -1518.2447      1247.1773      2433.6641      21.563593    
   9545000   303.08775     -1492.8942      1275.8808      2493.3276      13.84451     
   9550000   296.78169     -1542.3661      1292.2625      2403.8459      4.1760891    
   9555000   303.65364     -1504.7332      1271.8119      2482.4802      6.5925642    
   9560000   303.72307     -1547.6872      1215.3766      2383.7119     -7.1631033    
   9565000   294.35262     -1476.9304      1228.847       2384.1443      0.33237786   
   9570000   302.05551     -1461.0744      1285.5742      2525.6101      4.1500778    
   9575000   304.05233     -1472.3989      1282.3824      2528.9502     -10.98887     
   9580000   296.22316     -1431.6474      1258.5687      2475.8762      17.312226    
   9585000   299.50262     -1475.5847      1283.0553      2485.7518     -10.832325    
   9590000   303.96387     -1490.6589      1230.4839      2458.0007      9.140759     
   9595000   304.27537     -1452.3044      1275.6146      2544.2714      3.6116207    
   9600000   298.92314     -1489.0732      1262.6019      2446.628       13.515152    
   9605000   305.95008     -1474.8591      1249.7079      2510.7861      10.222069    
   9610000   300.21394     -1447.8089      1254.3521      2491.1854      13.403083    
   9615000   294.15469     -1447.6784      1234.1609      2416.9403     -6.9106127    
   9620000   299.51973     -1424.4639      1244.2796      2498.2499     -2.4273602    
   9625000   301.47929     -1467.5076      1262.0756      2490.5256      31.078779    
   9630000   303.26572     -1473.7189      1249.3899      2487.6036      4.8412926    
   9635000   294.29092     -1458.0512      1266.5264      2440.1513     -0.63252029   
   9640000   301.74216     -1489.9506      1259.1437      2467.5012      10.069369    
   9645000   304.69416     -1488.8468      1251.5225      2487.3819      3.5611853    
   9650000   294.62311     -1468.934       1291.4733      2457.1859      4.0369943    
   9655000   310.71286     -1487.1372      1231.3425      2522.7332      6.797582     
   9660000   288.3264      -1459.2925      1291.083       2410.1291      16.696322    
   9665000   301.85661     -1426.7173      1209.6519      2482.2661     -0.10750135   
   9670000   295.52534     -1426.0654      1225.5808      2442.2301      4.7011024    
   9675000   292.66126     -1454.3404      1275.4165      2438.179       17.191474    
   9680000   295.18862     -1426.9739      1256.1415      2468.8712     -1.8769695    
   9685000   304.41578     -1436.9778      1243.8217      2529.0608      19.017628    
   9690000   301.09945     -1444.5796      1264.9758      2512.957       0.23335755   
   9695000   299.3623      -1480.1525      1245.491       2442.3649     -0.85566856   
   9700000   297.67853     -1489.5325      1208.7158      2381.1527      14.901553    
   9705000   297.79899     -1499.9292      1263.6612      2426.7788      11.308585    
   9710000   298.57767     -1445.741       1264.0884      2488.3573     -6.5514741    
   9715000   298.8815      -1478.0177      1266.9279      2461.6371      7.518026     
   9720000   296.49111     -1454.4613      1236.0997      2432.9895      13.736838    
   9725000   303.04975     -1465.3827      1257.0639      2501.6824     -11.86006     
   9730000   297.75585     -1485.8965      1276.4956      2453.2599      19.057208    
   9735000   299.21267     -1498.9042      1247.2875      2424.0718      6.2542484    
   9740000   305.73644     -1469.7285      1228.924       2493.2222      5.3448464    
   9745000   302.41673     -1462.4628      1265.5851      2507.4628      2.2645203    
   9750000   302.05723     -1435.6906      1296.9735      2562.4086     -7.0354486    
   9755000   303.04454     -1482.4039      1244.6012      2472.1519     -2.0126722    
   9760000   301.23532     -1458.5037      1284.5471      2519.8192      4.3925603    
   9765000   293.78018     -1445.464       1288.7554      2470.4001      2.7888547    
   9770000   303.90384     -1443.3651      1304.5791      2578.8528     -1.0151701    
   9775000   299.80352     -1488.5665      1244.6786      2437.0841      31.134497    
   9780000   296.69241     -1520.2166      1249.4911      2382.4257      2.5371374    
   9785000   296.51796     -1527.7375      1249.4435      2373.2972     -3.6129893    
   9790000   298.83368     -1509.0387      1248.8131      2412.0736      4.0081717    
   9795000   299.35152     -1523.5497      1269.5163      2422.8967      14.06359     
   9800000   293.88148     -1523.6192      1244.3746      2348.77       -1.4401639    
   9805000   297.05614     -1489.453       1261.9343      2428.8851      2.1605347    
   9810000   303.73803     -1487.6603      1285.3037      2513.7996     -11.949898    
   9815000   299.37586     -1485.7669      1281.7199      2473.1007     -18.413866    
   9820000   307.59162     -1504.0784      1258.1342      2504.6725      7.0330935    
   9825000   301.04378     -1470.7416      1255.3119      2476.6333      11.045221    
   9830000   311.00215     -1481.922       1261.2815      2560.4745      4.5689778    
   9835000   300.60629     -1478.6429      1312.3194      2521.8272     -6.9130231    
   9840000   298.47476     -1431.3839      1232.5281      2470.2338      1.4968361    
   9845000   294.14855     -1421.4765      1276.2293      2485.1556      3.084609     
   9850000   306.44124     -1437.4198      1292.5452      2595.4548      12.461653    
   9855000   302.02299     -1467.634       1265.3104      2498.4959     -10.542023    
   9860000   296.6915      -1448.0527      1262.4787      2467.569      -9.1609883    
   9865000   300.06982     -1419.0438      1235.5715      2499.8812      2.1229949    
   9870000   301.19556     -1433.3294      1261.0623      2521.1531      19.113041    
   9875000   292.15101     -1447.6161      1254.3212      2419.2451      6.3776964    
   9880000   302.75675     -1405.2736      1204.5354      2506.6429      27.991702    
   9885000   300.58694     -1421.1846      1232.8107      2499.6038      14.400323    
   9890000   299.30318     -1392.9517      1260.8397      2544.3858      4.7941403    
   9895000   300.13324     -1384.3904      1235.3492      2534.8794      11.708625    
   9900000   303.41216     -1397.2497      1293.6694      2609.6618      15.040609    
   9905000   298.74469     -1445.296       1247.1012      2473.3087      6.7720189    
   9910000   299.37934     -1442.914       1271.18        2505.4448     -0.72144074   
   9915000   299.90413     -1416.4634      1253.8129      2519.2212      12.73948     
   9920000   296.61791     -1452.7584      1247.6667      2447.3933      0.1715244    
   9925000   305.54214     -1462.2973      1332.026       2602.018       21.87674     
   9930000   298.65694     -1459.89        1248.7386      2459.5675      10.880072    
   9935000   306.8624      -1458.354       1264.24        2549.9816      12.706629    
   9940000   311.11223     -1454.0027      1306.839       2634.9357      2.0915748    
   9945000   299.36004     -1438.1416      1282.666       2521.5306      9.9630681    
   9950000   294.69204     -1426.1154      1232.389       2441.5366      8.9755386    
   9955000   294.94418     -1434.3168      1253.1478      2456.3487     -5.6205853    
   9960000   292.80273     -1446.0569      1276.6621      2448.9732     -8.1512333    
   9965000   294.85896     -1428.1958      1238.7392      2447.299      -2.3181768    
   9970000   299.74937     -1462.0098      1298.8593      2517.3374      3.3747859    
   9975000   301.37995     -1514.9279      1319.9943      2500.1355      13.417098    
   9980000   292.31149     -1533.478       1258.9048      2339.4018      0.83928289   
   9985000   297.84144     -1559.5243      1225.7587      2329.6607     -6.2970045    
   9990000   299.38323     -1547.555       1197.641       2327.2996     -7.6658697    
   9995000   305.39162     -1455.3615      1250.2537      2525.8354      4.4371471    
  10000000   295.60562     -1520.7978      1274.5766      2397.2114     -3.5173281    
  10005000   296.85203     -1507.932       1299.1099      2445.7565      10.927945    
  10010000   300.98686     -1514.9575      1234.961       2411.5576      20.612149    
  10015000   298.21743     -1505.4796      1227.4001      2388.7091      9.6295413    
  10020000   298.85006     -1497.7218      1248.2338      2422.9579     -2.5056318    
  10025000   299.40091     -1473.2972      1234.0122      2438.0868      3.5560146    
  10030000   298.56093     -1451.7435      1253.08        2471.1968     -7.5877405    
  10035000   297.17558     -1455.2626      1289.1017      2491.3109      8.2575161    
  10040000   293.92279     -1431.8467      1273.0565      2469.5939     -15.086489    
  10045000   304.39878     -1440.6973      1249.0673      2530.4347     -16.260634    
  10050000   296.1993      -1421.8689      1248.9212      2475.7939      8.8925338    
  10055000   296.89646     -1417.2346      1220.2854      2458.0267     -0.098788775  
  10060000   298.90792     -1448.7324      1276.4425      2500.6733      3.3781117    
  10065000   300.62855     -1431.6369      1244.7822      2501.495      -10.365721    
  10070000   301.44501     -1400.3008      1263.1612      2558.5114      6.1912026    
  10075000   300.01554     -1459.037       1226.6514      2450.4824      14.606727    
  10080000   301.78784     -1429.5327      1251.4672      2520.6512      4.2392035    
  10085000   297.8153      -1428.5024      1248.1173      2482.8075     -2.8367014    
  10090000   302.67005     -1418.5896      1266.307       2554.3232      3.2141851    
  10095000   302.18867     -1396.7154      1266.5007      2572.0863     -11.060519    
  10100000   293.48276     -1436.3002      1280.1187      2468.2676     -2.0596777    
  10105000   298.69707     -1412.8923      1274.8853      2533.0707      29.330012    
  10110000   303.40554     -1387.9232      1271.8589      2597.1186      13.041802    
  10115000   299.8153      -1384.6549      1286.9785      2583.401       12.900936    
  10120000   303.4126      -1402.5159      1251.5732      2562.3033     -2.9398611    
  10125000   310.94543     -1395.0174      1263.3407      2648.9311      4.5640345    
  10130000   302.37858     -1427.3379      1223.656       2500.3174     -2.6235315    
  10135000   301.67729     -1439.7551      1271.4855      2529.4585      11.672022    
  10140000   297.55397     -1436.9548      1256.5395      2480.4403      10.271849    
  10145000   299.21268     -1439.1148      1269.0433      2505.617      -9.7272423    
  10150000   298.73421     -1403.2307      1255.1112      2523.2904     -10.179319    
  10155000   298.98609     -1405.5498      1297.5678      2565.6802      1.5002       
  10160000   298.58861     -1406.9278      1321.6463      2584.8263      6.1408861    
  10165000   302.44697     -1405.148       1235.9344      2535.3973      19.162793    
  10170000   297.8158      -1447.8176      1274.6375      2490.017       17.878688    
  10175000   299.86856     -1469.9223      1311.3609      2522.9923      12.372423    
  10180000   297.52109     -1431.1825      1268.2119      2497.591      -1.0231055    
  10185000   302.39777     -1450.7758      1241.8717      2495.2668      2.8955413    
  10190000   303.35434     -1475.1341      1236.2957      2473.8867     -0.29674044   
  10195000   297.94421     -1487.8525      1275.8101      2452.3029     -10.673079    
  10200000   298.44944     -1457.7841      1248.7728      2459.8519      15.049468    
  10205000   298.539       -1498.4483      1262.8058      2434.0217     -3.931911     
  10210000   300.70142     -1411.0826      1271.1145      2549.0333      8.7938106    
  10215000   311.12437     -1447.9649      1260.6178      2594.8609     -2.2850947    
  10220000   303.70103     -1428.5884      1259.7542      2546.9911      1.3269172    
  10225000   300.6422      -1400.8747      1301.1091      2588.7063      14.877378    
  10230000   300.50127     -1391.8998      1274.453       2569.7648      0.13362589   
  10235000   303.30187     -1404.4061      1254.8645      2562.7143      6.2983351    
  10240000   299.09217     -1413.8908      1269.064       2529.7841      9.1981772    
  10245000   303.28582     -1442.6077      1229.6386      2499.1432     -3.4808832    
  10250000   303.33387     -1480.9789      1266.5307      2498.0938      5.3112735    
  10255000   302.99849     -1472.4977      1264.0023      2501.0474     -11.73468     
  10260000   293.74694     -1491.1139      1221.6013      2357.2989      2.8045075    
  10265000   301.80152     -1494.4241      1261.7613      2466.1762      17.861354    
  10270000   301.1619      -1475.7618      1315.0041      2532.3616     -9.3344613    
  10275000   292.97275     -1425.6196      1229.5278      2423.7965      13.01762     
  10280000   295.58249     -1419.7122      1278.3374      2501.851       30.631834    
  10285000   299.35205     -1406.9675      1276.5342      2546.5015      15.03679     
  10290000   298.93007     -1419.372       1252.764       2506.5533      7.6665917    
  10295000   299.48237     -1424.8971      1284.4526      2537.6557      17.597943    
  10300000   291.88075     -1447.3276      1275.0903      2437.886       10.469747    
  10305000   296.87106     -1422.3871      1276.1556      2508.5172      7.5556527    
  10310000   297.07317     -1422.0649      1278.8277      2513.3189      1.9087577    
  10315000   293.50836     -1448.9223      1267.1981      2442.9538      0.82655515   
  10320000   301.41359     -1438.07        1318.3137      2575.6137      17.26997     
  10325000   291.42593     -1442.8943      1242.16        2405.3217      10.009223    
  10330000   294.16369     -1435.9916      1300.6817      2495.2284      11.326787    
  10335000   297.23645     -1453.5258      1299.3077      2503.7981      6.3112476    
  10340000   307.43228     -1462.875       1293.7087      2580.0254     -0.71088263   
  10345000   301.7333      -1448.8764      1259.0616      2508.4142      14.255963    
  10350000   302.71222     -1430.8058      1278.9081      2555.0853     -0.68798779   
  10355000   304.3         -1441.972       1243.9881      2523.1977      0.12685402   
  10360000   302.44239     -1421.4078      1274.4817      2557.6439     -11.047657    
  10365000   298.68577     -1382.4638      1252.6131      2541.1259      8.271375     
  10370000   291.60315     -1443.7151      1256.854       2420.7797     -1.8007171    
  10375000   306.62304     -1463.6588      1275.1312      2553.4276     -10.631941    
  10380000   299.8957      -1454.0182      1289.6984      2517.4766      18.303072    
  10385000   304.78265     -1476.5638      1261.9793      2510.9131      17.393216    
  10390000   299.02624     -1470.3996      1242.2312      2445.8528      5.1758052    
  10395000   302.16715     -1474.1335      1255.6013      2483.5765      4.9489576    
  10400000   293.87461     -1498.512       1224.843       2354.2841     -5.4323894    
  10405000   302.42721     -1491.2376      1219.567       2432.7636      23.041496    
  10410000   304.84207     -1478.1976      1250.4316      2498.2628      10.100022    
  10415000   297.58415     -1474.4697      1273.5465      2460.2024     -10.313183    
  10420000   299.5465      -1505.236       1231.9805      2405.4181     -9.0737075    
  10425000   302.42861     -1528.5284      1261.0244      2436.9427     -4.1228398    
  10430000   298.44732     -1466.0195      1316.7713      2519.5961      7.9947656    
  10435000   294.52859     -1463.8077      1244.5109      2414.5046      5.4202402    
  10440000   303.60363     -1480.8082      1254.6617      2488.8077      0.85332379   
  10445000   301.95088     -1430.4402      1256.8623      2526.5967     -8.9827067    
  10450000   300.37998     -1461.1348      1235.3179      2460.3101      8.1416788    
  10455000   301.73683     -1452.7029      1295.7263      2541.2839     -4.9209397    
  10460000   295.99732     -1459.1434      1266.3488      2454.1407      0.81038151   
  10465000   299.45518     -1440.1762      1244.0829      2481.7638      16.432733    
  10470000   305.76585     -1454.6097      1239.8397      2519.5198     -16.576578    
  10475000   302.6023      -1459.6483      1252.6785      2499.0302      6.7254042    
  10480000   304.67825     -1454.5406      1245.5935      2515.6168     -4.7511201    
  10485000   301.67883     -1457.4393      1305.9228      2546.2253     -1.2532362    
  10490000   300.86562     -1411.769       1200.6184      2479.3192      31.509165    
  10495000   302.09682     -1473.3905      1267.2711      2495.3603      11.201965    
  10500000   301.14794     -1464.3315      1264.3573      2493.0203      9.3429606    
  10505000   296.58093     -1459.7944      1264.9087      2457.2686      5.218852     
  10510000   303.53641     -1451.4147      1257.8034      2520.7418     -4.6513767    
  10515000   302.07079     -1490.2264      1254.6925      2465.713      -5.827925     
  10520000   300.37705     -1457.4413      1228.7506      2457.4101      8.0279469    
  10525000   304.76457     -1450.5603      1266.6591      2541.4347     -1.6165364    
  10530000   300.23714     -1473.3993      1298.6408      2510.0911      5.7675609    
  10535000   303.48705     -1486.8922      1239.1511      2466.1706      9.3706971    
  10540000   299.37228     -1448.37        1270.7002      2499.446      -3.9966348    
  10545000   299.65241     -1435.7782      1253.3918      2497.2344     -3.9278828    
  10550000   299.9183      -1467.8151      1271.773       2485.9564      17.524175    
  10555000   294.51923     -1430.9087      1270.0285      2472.8374      0.4883897    
  10560000   298.82958     -1447.1131      1284.2516      2509.401       9.3570472    
  10565000   307.16652     -1453.8579      1255.9141      2548.8714     -2.7636146    
  10570000   304.03387     -1437.4314      1270.3835      2551.7537     -7.4902249    
  10575000   298.74371     -1442.2948      1333.8324      2563.0324     -15.156215    
  10580000   298.26272     -1445.8681      1272.6202      2493.9456     -0.4973005    
  10585000   300.1076      -1437.4681      1310.2045      2556.4276      5.1346462    
  10590000   306.7302      -1431.5973      1247.9533      2559.2694      5.2753244    
  10595000   303.64165     -1397.7398      1282.077       2599.6313      5.937255     
  10600000   302.81618     -1380.6937      1293.0723      2620.2912      14.610898    
  10605000   300.32403     -1433.7653      1277.3795      2529.2409      10.400404    
  10610000   308.59399     -1420.9133      1283.3857      2622.0526      13.618272    
  10615000   301.68831     -1440.5413      1260.2508      2517.536       3.8633246    
  10620000   290.15939     -1410.7073      1288.3078      2472.3306      17.692193    
  10625000   298.73507     -1428.5864      1332.1866      2575.0177      4.3290793    
  10630000   304.90303     -1448.6637      1266.378       2544.2883      6.4248407    
  10635000   295.49509     -1452.8221      1296.6925      2486.3146      5.0011608    
  10640000   296.60494     -1470.4086      1263.6633      2445.6236      10.745091    
  10645000   302.19179     -1490.8416      1262.9453      2474.4327     -4.4272884    
  10650000   301.99573     -1515.3233      1222.165       2407.4175      17.815033    
  10655000   296.60017     -1530.6672      1256.4326      2378.0917     -11.384109    
  10660000   299.76048     -1524.8952      1207.1487      2362.8406      8.3179529    
  10665000   296.62165     -1523.1809      1264.7212      2394.0586      6.3423963    
  10670000   304.78163     -1518.4736      1247.4419      2454.4567      20.89751     
  10675000   296.92663     -1492.0171      1279.8916      2443.1201      2.8458971    
  10680000   284.79732     -1496.0572      1252.6584      2303.3812      3.4469965    
  10685000   297.89267     -1472.5709      1224.8445      2416.1581      12.483283    
  10690000   298.74442     -1470.3118      1264.5424      2465.7317      12.272604    
  10695000   295.61337     -1477.278       1322.7623      2488.9862      3.1484053    
  10700000   295.46245     -1486.3259      1295.4409      2451.2673      17.22229     
  10705000   298.8616      -1469.4365      1212.4041      2415.5165     -0.71043714   
  10710000   294.99085     -1476.4853      1265.8476      2427.2974      12.138149    
  10715000   300.29979     -1515.5336      1235.5391      2405.4155     -1.3816334    
  10720000   301.31907     -1518.8922      1277.3481      2452.9806     -24.093255    
  10725000   295.35629     -1478.124       1253.9179      2416.997      -2.2708971    
  10730000   298.67051     -1483.8998      1266.7721      2453.7124      1.6868048    
  10735000   302.95765     -1462.7663      1297.8714      2544.2827      21.489117    
  10740000   298.9308      -1486.4721      1282.4998      2469.1955      9.2944256    
  10745000   298.19881     -1451.4377      1247.9538      2463.1381     -1.10892      
  10750000   295.25789     -1418.7701      1229.9537      2451.5067      3.4155753    
  10755000   299.40455     -1453.8726      1287.052       2510.5836      10.462919    
  10760000   304.39047     -1412.7847      1290.4028      2599.6086      1.9551596    
  10765000   302.9043      -1439.2807      1272.285       2541.7048      14.652537    
  10770000   302.10658     -1448.749       1242.0553      2494.8733      3.1707123    
  10775000   300.17161     -1445.256       1238.6262      2477.6338      7.9944149    
  10780000   301.2896      -1422.4905      1272.3425      2544.1132     -3.1076424    
  10785000   303.98362     -1415.4086      1264.4713      2567.4149     -7.8118258    
  10790000   295.88317     -1423.0821      1198.0575      2420.8899      15.069697    
  10795000   298.86503     -1403.4206      1294.4479      2563.6069      4.0339725    
  10800000   304.74627     -1386.9995      1285.044       2623.2168      8.2523219    
  10805000   293.65673     -1410.7855      1253.4863      2468.7055      7.7651688    
  10810000   305.27372     -1435.2756      1309.4662      2604.0795      16.092366    
  10815000   296.66029     -1449.0187      1265.3381      2469.1834     -2.1978972    
  10820000   298.79894     -1457.3907      1208.0731      2422.6711     -2.6135554    
  10825000   304.77098     -1461.7757      1239.4439      2503.0614      4.2870004    
  10830000   302.32293     -1481.3724      1246.3404      2468.4697      1.6818152    
  10835000   300.87795     -1501.6481      1240.0569      2428.9888     -3.3217558    
  10840000   298.72061     -1466.3489      1236.8398      2441.7791     -12.204375    
  10845000   301.40494     -1496.5448      1214.9186      2413.6664      7.4000702    
  10850000   306.99436     -1462.1111      1234.8059      2517.9703      16.58034     
  10855000   295.55858     -1474.2927      1301.3264      2470.0456      2.3259568    
  10860000   297.43799     -1470.6406      1306.9028      2496.0806     -11.971303    
  10865000   293.3929      -1490.7243      1258.211       2391.1323      7.027424     
  10870000   298.42785     -1450.1488      1268.5769      2487.0984     -5.1911012    
  10875000   297.1796      -1507.283       1261.9954      2412.2202      12.175677    
  10880000   301.81105     -1559.0022      1212.7359      2352.6579     -0.24071117   
  10885000   297.54895     -1563.8696      1242.56        2339.5011      11.615856    
  10890000   300.82774     -1567.704       1349.9072      2472.3343      5.4370319    
  10895000   301.735       -1520.3357      1251.8579      2429.7663      2.9797492    
  10900000   299.44894     -1520.9763      1308.0476      2464.8725      21.263264    
  10905000   297.30585     -1544.0447      1269.7077      2384.2999     -6.9589787    
  10910000   301.57676     -1520.0028      1248.349       2425.1754      12.854799    
  10915000   294.4922      -1519.7933      1242.9358      2356.6184     -12.822244    
  10920000   292.38352     -1490.9503      1254.5727      2378.2416      5.8369323    
  10925000   303.56353     -1490.6419      1276.1569      2500.1106      16.934933    
  10930000   302.19928     -1508.7255      1298.6532      2492.3236      0.40242794   
  10935000   301.9269      -1499.2402      1297.816       2498.5361      7.9354402    
  10940000   292.94901     -1474.8021      1248.1584      2393.0323     -12.17826     
  10945000   300.61188     -1444.4545      1243.975       2487.7212     -5.7484957    
  10950000   299.57136     -1468.8995      1256.803       2466.7994      15.627083    
  10955000   305.22823     -1485.5776      1274.75        2518.6546     -0.080375052  
  10960000   296.66126     -1503.61        1244.8738      2394.1364      10.374957    
  10965000   299.27953     -1472.9246      1277.7448      2481.1065      7.3167612    
  10970000   299.41609     -1453.7168      1233.7582      2457.549      -4.9000646    
  10975000   306.67452     -1495.1035      1233.3919      2480.7039      7.4124285    
  10980000   304.57669     -1464.661       1282.3974      2541.3921     -1.8449808    
  10985000   303.75319     -1491.4373      1249.2354      2474.0898      21.937862    
  10990000   307.05856     -1478.0705      1240.3982      2508.1774     -6.1088365    
  10995000   300.89478     -1497.8002      1236.5326      2429.4629     -3.2985204    
  11000000   302.98215     -1492.1244      1294.9805      2512.2528      1.5181082    
  11005000   294.24197     -1513.0135      1259.4214      2377.6462      21.801925    
  11010000   299.20279     -1485.1334      1291.8402      2482.3068      22.315003    
  11015000   300.50234     -1495.9938      1236.1766      2427.404       2.1350848    
  11020000   294.9571      -1493.9163      1234.7988      2378.5157      18.630772    
  11025000   310.12972     -1477.815       1292.4502      2587.9485     -7.4428215    
  11030000   291.99907     -1491.3896      1252.4034      2372.1951      9.9240492    
  11035000   305.65551     -1497.4938      1216.9369      2452.7462      19.153063    
  11040000   302.17501     -1514.0175      1280.5441      2468.7055      15.825231    
  11045000   302.18212     -1511.089       1269.2214      2460.3749      2.393775     
  11050000   297.90706     -1518.1648      1233.4978      2379.3462      1.4233394    
  11055000   298.04634     -1473.9316      1276.2648      2467.5917      6.819261     
  11060000   299.04583     -1483.3932      1264.955       2455.7582     -10.624401    
  11065000   297.08241     -1509.8314      1277.1067      2423.914      -16.0394      
  11070000   299.49981     -1497.1998      1245.8251      2426.8814      8.3418057    
  11075000   298.61436     -1489.432       1312.8479      2493.754       6.5179932    
  11080000   294.47128     -1448.568       1243.8701      2428.5909      8.2538154    
  11085000   295.2919      -1474.6424      1238.7388      2404.7235      10.393073    
  11090000   300.51037     -1486.2733      1230.3696      2431.3893      11.058047    
  11095000   296.6684      -1453.7996      1232.6908      2431.8276      4.6586151    
  11100000   306.03598     -1470.8623      1214.7762      2480.6192      10.646285    
  11105000   301.85948     -1461.486       1263.3631      2501.2344     -15.072687    
  11110000   299.26296     -1470.7719      1285.1259      2490.4921      12.90975     
  11115000   311.56623     -1474.9728      1252.588       2563.7743      7.2018053    
  11120000   301.52082     -1468.0905      1243.3286      2471.5669     -5.213373     
  11125000   299.77154     -1470.2909      1245.073       2455.4681      5.1956674    
  11130000   304.66967     -1426.5937      1264.707       2562.6006      18.33987     
  11135000   297.28458     -1425.678       1308.1432      2540.9117     -8.2536548    
  11140000   302.83652     -1440.0483      1272.3212      2540.3673      1.4231384    
  11145000   294.89649     -1442.065       1257.7378      2452.7641      12.844662    
  11150000   298.32517     -1446.4513      1252.0176      2473.3184      5.7032106    
  11155000   293.67465     -1452.0299      1243.9887      2418.1238      15.406861    
  11160000   296.13486     -1445.1513      1247.9136      2450.9276      4.5218893    
  11165000   303.51318     -1425.7612      1203.0426      2491.4269      31.373659    
  11170000   295.48761     -1497.5284      1233.9161      2378.765       19.115345    
  11175000   298.85846     -1469.3685      1279.8118      2482.9641      5.7528557    
  11180000   307.51381     -1496.0028      1233.9839      2487.9018      1.9226243    
  11185000   296.27088     -1479.7224      1294.8341      2464.4934      16.05805     
  11190000   295.46604     -1496.3329      1277.138       2422.9895      3.9722533    
  11195000   306.82545     -1410.3402      1276.2137      2609.6386     -2.7986949    
  11200000   304.74005     -1425.9971      1258.6254      2557.7449      5.727602     
  11205000   300.91488     -1431.2552      1258.1528      2517.8078      3.452831     
  11210000   302.81683     -1429.7218      1183.1545      2461.351       10.031235    
  11215000   295.20158     -1448.4966      1274.3804      2465.7033      4.3078294    
  11220000   304.1392      -1469.3711      1266.0037      2516.3762      18.902172    
  11225000   307.36082     -1458.3504      1221.4162      2511.6185     -1.489845     
  11230000   304.23781     -1501.2559      1275.3769      2494.7464      6.3697309    
  11235000   296.22855     -1509.7658      1247.4397      2386.677       7.037803     
  11240000   296.91445     -1487.0334      1290.829       2458.9323      14.161866    
  11245000   296.69082     -1475.1658      1190.7346      2368.7057      10.976939    
  11250000   297.81346     -1495.632       1258.2768      2425.8208      3.6968494    
  11255000   298.58153     -1498.1127      1268.8288      2440.7607     -2.4486262    
  11260000   295.4053      -1519.3687      1257.7722      2380.0448      9.6467755    
  11265000   301.11536     -1521.302       1242.8289      2414.2301      10.451208    
  11270000   300.78522     -1485.1905      1296.6952      2501.2556      7.151957     
  11275000   294.64849     -1469.216       1283.4962      2449.1538      11.446743    
  11280000   292.44542     -1464.8838      1264.8725      2415.1614      4.1734202    
  11285000   306.94935     -1505.2636      1263.7236      2503.3331      12.995992    
  11290000   301.81246     -1503.7056      1283.4002      2478.6314     -7.5210338    
  11295000   306.53378     -1486.4795      1220.5698      2475.2472      1.0020542    
  11300000   297.38501     -1460.2599      1301.8761      2500.9609      4.1751017    
  11305000   298.58902     -1504.7873      1261.7892      2427.1134     -0.53975036   
  11310000   303.16797     -1533.0252      1265.3625      2443.3957      0.44847988   
  11315000   301.68724     -1526.7854      1218.2459      2389.2776      10.568923    
  11320000   301.56745     -1519.2308      1275.8029      2453.3179      5.9659591    
  11325000   293.53303     -1505.389       1268.9277      2388.4373     -0.59170913   
  11330000   297.28159     -1501.9358      1226.6754      2383.1594     -4.7030578    
  11335000   295.02247     -1498.475       1273.8421      2413.5848      8.8276718    
  11340000   292.35775     -1489.1627      1285.8605      2411.0866      4.4046598    
  11345000   307.33674     -1540.0392      1221.4663      2429.7644      8.2006353    
  11350000   294.3486      -1497.2262      1273.9185      2408.8841     -6.5520438    
  11355000   295.29799     -1482.2786      1268.1394      2426.5424     -4.3491346    
  11360000   293.72163     -1491.1098      1260.7695      2396.2448      0.84663333   
  11365000   289.7522      -1486.5085      1296.8169      2401.3973      2.3522942    
  11370000   301.62596     -1478.8048      1226.5405      2445.0048      5.1011248    
  11375000   295.42568     -1506.9694      1274.8311      2409.6852      8.1883575    
  11380000   298.906       -1491.7641      1294.1249      2475.3069      0.86311912   
  11385000   303.63677     -1463.6499      1200.9021      2452.5028      7.8142945    
  11390000   295.34698     -1463.0843      1272.2356      2450.271       3.0735795    
  11395000   301.6512      -1496.1968      1273.7417      2475.0397      11.809258    
  11400000   306.17031     -1469.505       1267.2481      2535.6497      19.798448    
  11405000   299.83375     -1448.3481      1322.9309      2555.8251     -8.4585442    
  11410000   305.75059     -1471.8097      1256.9918      2519.3354      4.1518216    
  11415000   299.50081     -1495.0768      1330.8371      2514.0254     -19.530474    
  11420000   306.46555     -1499.4534      1233.4748      2474.5681      2.481611     
  11425000   295.98194     -1473.4241      1253.6755      2427.0492      4.5030695    
  11430000   296.47322     -1486.5876      1228.0754      2392.6788     -14.28764     
  11435000   294.51492     -1476.9066      1297.2071      2453.9795      3.1806927    
  11440000   300.42614     -1496.1432      1238.2765      2428.6731      15.116722    
  11445000   303.9992      -1480.9778      1298.0801      2535.5938      16.87809     
  11450000   304.29512     -1461.5298      1292.7836      2552.3916      7.425132     
  11455000   303.76941     -1439.8882      1257.4086      2533.9572      3.1958689    
  11460000   300.66138     -1441.8439      1221.0551      2467.8546      3.2733956    
  11465000   298.47016     -1461.3443      1297.0317      2504.736       3.5653453    
  11470000   289.3978      -1459.3888      1253.0486      2381.5795     -1.7251717    
  11475000   300.31229     -1504.2113      1279.3229      2460.6332      10.136936    
  11480000   302.3515      -1491.2489      1250.7922      2463.3005     -12.427392    
  11485000   299.97072     -1487.2383      1272.6132      2467.8421      21.647683    
  11490000   296.82392     -1501.5134      1270.377       2423.1908     -4.6798796    
  11495000   308.47372     -1475.9629      1265.3868      2547.9286      15.952874    
  11500000   300.75297     -1487.5308      1274.4933      2476.4249      12.782108    
  11505000   295.91877     -1505.1238      1258.1525      2399.2616     -1.9116026    
  11510000   298.2715      -1530.4581      1268.5236      2405.3375      3.2463751    
  11515000   300.33895     -1533.5517      1265.3046      2417.513      -4.3377012    
  11520000   306.98227     -1543.4647      1262.5268      2464.2296      3.4771814    
  11525000   308.0174      -1505.085       1264.3969      2513.736      -6.9285828    
  11530000   301.00426     -1497.0296      1281.2226      2475.9026     -3.2320097    
  11535000   303.19155     -1498.8025      1261.1758      2473.6426      17.661759    
  11540000   299.17657     -1512.852       1271.3412      2433.8548     -17.285571    
  11545000   296.0076      -1502.34        1238.0132      2382.7004      3.9732898    
  11550000   301.16455     -1469.5785      1308.7859      2532.3504      28.433841    
  11555000   297.68478     -1505.6735      1212.5648      2368.9167      6.1995789    
  11560000   300.27312     -1514.9463      1246.3893      2416.6144     -2.7666371    
  11565000   298.54228     -1523.2262      1235.3972      2381.8645     -2.2081625    
  11570000   298.67242     -1482.5683      1276.3516      2464.6406      10.6137      
  11575000   296.86246     -1494.3645      1263.4631      2423.7704      8.7045092    
  11580000   302.24426     -1513.5405      1304.7619      2494.0196     -5.2979237    
  11585000   304.94088     -1499.5501      1259.7415      2487.1039      5.4882581    
  11590000   302.76795     -1515.7611      1250.933       2442.6531      8.862087     
  11595000   301.72985     -1481.746       1209.8027      2426.2548      2.2460117    
  11600000   304.50762     -1466.1603      1272.3259      2529.2037     -2.2135103    
  11605000   301.35193     -1484.7676      1254.655       2464.706       4.7108627    
  11610000   300.4586      -1495.16        1241.4115      2433.0816      15.566211    
  11615000   295.28831     -1514.2999      1260.369       2386.6642      12.621491    
  11620000   294.61165     -1517.3853      1270.0707      2387.2295     -0.79396618   
  11625000   297.18464     -1454.7439      1291.3367      2494.1456      3.4459802    
  11630000   298.31215     -1492.7068      1262.4732      2437.4019      2.9767061    
  11635000   299.53515     -1465.2546      1249.1222      2462.4397     -0.60682696   
  11640000   300.61235     -1442.853       1295.9238      2541.2758      3.4024842    
  11645000   288.5632      -1466.539       1265.3309      2379.2481      8.3908362    
  11650000   297.79163     -1444.7122      1258.9049      2477.1736     -2.2058655    
  11655000   305.1328      -1426.8918      1279.3854      2581.1223      12.193807    
  11660000   297.66218     -1408.6855      1260.1042      2513.242       15.045783    
  11665000   293.96487     -1444.8678      1276.6565      2460.549       9.3482136    
  11670000   308.0111      -1451.846       1278.7892      2581.3109      19.343588    
  11675000   296.54911     -1441.4314      1275.9107      2486.3491      10.682721    
  11680000   297.58329     -1414.5815      1269.5666      2516.1029      21.598124    
  11685000   295.82122     -1438.7274      1263.6486      2470.2819      3.3346375    
  11690000   303.81353     -1468.3895      1295.063       2543.5048     -2.5464647    
  11695000   291.64529     -1460.5647      1193.7689      2341.2219      5.0821197    
  11700000   305.35468     -1431.7571      1308.6219      2607.4776      15.437947    
  11705000   298.09298     -1462.9564      1253.5355      2456.2547     -10.208092    
  11710000   308.79963     -1472.0411      1284.3871      2573.7651      3.5970209    
  11715000   301.13836     -1478.5752      1235.4186      2449.7521     -3.6943024    
  11720000   297.61901     -1495.3898      1280.6433      2446.6907      12.706728    
  11725000   309.38891     -1531.7316      1259.0657      2494.0228      13.631621    
  11730000   299.14182     -1491.9106      1246.5093      2429.6536     -1.0945562    
  11735000   302.26961     -1496.6253      1293.9716      2500.3712      9.3224807    
  11740000   293.70267     -1504.3575      1257.7428      2379.8009      16.084525    
  11745000   304.46456     -1502.8168      1208.6992      2428.5355      5.0040187    
  11750000   293.63331     -1523.926       1312.0963      2413.9658      3.4648275    
  11755000   294.88089     -1505.0571      1278.0484      2409.9431      2.2947344    
  11760000   299.76601     -1497.4259      1341.9414      2525.152       27.437752    
  11765000   297.23697     -1507.2547      1246.6038      2397.37        11.279269    
  11770000   310.91188     -1473.0977      1272.224       2579.434       8.0113783    
  11775000   302.73944     -1475.2302      1259.8495      2491.8456     -4.3450226    
  11780000   300.80094     -1473.6875      1240.2694      2456.4733      14.219399    
  11785000   301.29243     -1433.9686      1271.7761      2532.094      -12.048581    
  11790000   296.41231     -1428.5253      1237.5744      2459.6955     -0.34825643   
  11795000   306.04011     -1435.7455      1280.4522      2581.449       15.426776    
  11800000   306.26578     -1423.8229      1211.2377      2526.1751     -0.60500877   
  11805000   297.52666     -1403.3399      1255.8797      2513.1512      14.082284    
  11810000   297.81175     -1364.3209      1307.1287      2605.9686      7.3866633    
  11815000   298.83098     -1390.2543      1217.2169      2499.2378      4.8382493    
  11820000   296.00009     -1398.9441      1244.6738      2492.6898      14.876303    
  11825000   297.66491     -1419.0638      1256.3627      2499.1466     -5.8476712    
  11830000   303.3019      -1355.5969      1272.13        2628.7892      8.0317602    
  11835000   301.73311     -1354.3926      1285.0612      2628.896      -3.9782348    
  11840000   301.19176     -1344.044       1260.1759      2609.5182      2.2132205    
  11845000   303.90039     -1363.1502      1265.5847      2620.0426      17.738562    
  11850000   308.44253     -1365.5928      1252.0779      2644.711       8.7562218    
  11855000   298.71159     -1319.5225      1260.758       2612.443       3.7206114    
  11860000   293.58814     -1356.2164      1286.9547      2556.1298      7.9283665    
  11865000   297.45183     -1358.7947      1269.5149      2570.6624      11.524546    
  11870000   294.12194     -1378.3396      1215.8845      2467.7097     -7.1026953    
  11875000   304.6944      -1366.9401      1256.6339      2614.4023      2.5943883    
  11880000   307.26372     -1359.2711      1255.4593      2643.8725      10.609746    
  11885000   300.9009      -1347.1183      1263.4392      2607.1062     -7.3515293    
  11890000   299.6444      -1367.7515      1244.2566      2556.0542      0.80287751   
  11895000   300.57327     -1361.8392      1225.976       2551.9923      8.3685044    
  11900000   308.54375     -1370.5074      1242.4207      2631.0442      1.6912891    
  11905000   295.80474     -1396.8262      1287.3019      2535.6889     -0.67865634   
  11910000   308.9382      -1387.9636      1289.2963      2663.991       21.739052    
  11915000   303.19        -1370.4989      1279.813       2620.5696      5.5336684    
  11920000   308.73565     -1424.0585      1307.1153      2643.9037     -6.1789903    
  11925000   301.81062     -1403.9998      1284.5742      2579.4947     -10.326422    
  11930000   300.01507     -1359.5633      1255.3003      2578.6008      15.139639    
  11935000   299.92661     -1347.5784      1276.3298      2610.8241     -5.9832558    
  11940000   299.2292      -1347.7722      1292.0912      2620.1553      3.538892     
  11945000   298.64997     -1378.9041      1235.1455      2526.8978      24.837943    
  11950000   296.60157     -1325.4725      1297.4734      2624.3398     -4.1128856    
  11955000   306.0111      -1366.2447      1223.0382      2593.2764      11.007136    
  11960000   301.054       -1370.6441      1263.1839      2584.6942      6.5424123    
  11965000   302.11746     -1379.4303      1253.2996      2575.5335      7.3293066    
  11970000   295.49077     -1382.9774      1236.5971      2496.0253      13.260951    
  11975000   296.94208     -1375.5374      1248.1287      2527.9751      2.8502324    
  11980000   301.59233     -1420.3806      1292.3076      2568.8952     -2.2815568    
  11985000   303.98871     -1394.1324      1256.1306      2580.3961      8.3371592    
  11990000   297.97864     -1390.4616      1278.3646      2552.5561     -16.654164    
  11995000   301.31393     -1408.1635      1268.5744      2554.8896      17.459795    
  12000000   302.70751     -1420.4339      1294.2471      2580.7539      15.385934    
  12005000   300.8027      -1419.6418      1275.2423      2545.5076      7.8193261    
  12010000   307.10957     -1391.3105      1242.3526      2597.348       1.698132     
  12015000   298.11193     -1431.4103      1270.816       2505.2508      11.095391    
  12020000   293.18252     -1423.3813      1274.7182      2473.1011     -5.1798563    
  12025000   299.86319     -1402.4755      1260.7888      2539.8189      5.2635011    
  12030000   300.99312     -1359.2961      1298.2416      2630.5555     -23.035166    
  12035000   302.80103     -1361.9324      1257.1746      2603.0192      1.51737      
  12040000   299.69304     -1409.8258      1263.0026      2533.1609     -1.1046263    
  12045000   296.14477     -1375.4652      1263.1359      2535.9247      5.3525408    
  12050000   303.63294     -1442.813       1358.4043      2630.8077      14.494579    
  12055000   296.18502     -1442.5115      1259.2222      2465.3246     -2.000284     
  12060000   291.52479     -1467.9206      1252.0728      2391.0923     -9.8103758    
  12065000   297.96048     -1464.7272      1292.28        2492.0435     -6.6459295    
  12070000   302.98408     -1445.447       1239.3814      2503.3484      0.22337657   
  12075000   300.5564      -1460.8167      1243.6072      2470.4952      10.745013    
  12080000   295.18795     -1463.0413      1264.4082      2441.0646     -6.8003125    
  12085000   296.34872     -1457.9695      1265.7761      2457.8844      0.38066367   
  12090000   296.97771     -1422.5836      1218.0492      2451.1681      10.945348    
  12095000   298.01863     -1417.3276      1292.3076      2539.9907      15.203325    
  12100000   295.53202     -1433.729       1248.9762      2458.0217     -9.7620967    
  12105000   310.31223     -1453.9445      1249.4718      2570.4727     -5.5239145    
  12110000   302.1378      -1467.9359      1313.3738      2547.284      -8.2530286    
  12115000   300.98578     -1490.0819      1277.2441      2478.7065      2.6448723    
  12120000   301.59594     -1431.3709      1258.233       2523.8627      1.6853082    
  12125000   297.98902     -1448.6365      1258.6273      2474.7368      12.99689     
  12130000   301.96253     -1437.6062      1246.2498      2508.9224      11.529072    
  12135000   301.07556     -1477.9026      1268.8105      2483.255       4.2519809    
  12140000   303.77974     -1418.3053      1236.8227      2535.0466      10.350215    
  12145000   297.69161     -1462.3322      1264.2422      2463.9964      8.6404771    
  12150000   305.74584     -1425.5426      1348.7044      2657.2726     -2.6666349    
  12155000   296.85192     -1449.2056      1276.7777      2482.1497      1.8350065    
  12160000   297.88533     -1440.8948      1250.7267      2473.6507     -6.4132835    
  12165000   299.70712     -1394.1557      1240.0438      2525.9981      12.96005     
  12170000   301.57585     -1422.7818      1271.2901      2545.3292      10.926035    
  12175000   300.68505     -1441.4482      1257.117       2504.5238      13.994786    
  12180000   303.76633     -1438.3849      1200.0623      2478.0865      5.5083698    
  12185000   296.04933     -1459.7913      1246.6521      2434.2612     -9.5974111    
  12190000   304.43244     -1439.7959      1293.2897      2575.8596     -2.3926742    
  12195000   296.44523     -1405.7287      1274.0334      2519.2455      26.466668    
  12200000   305.53572     -1413.1826      1269.9008      2588.95        0.057799941  
  12205000   304.17069     -1416.6768      1284.9527      2588.301       5.3263872    
  12210000   300.02415     -1403.5699      1314.6597      2594.0349      13.240031    
  12215000   305.39604     -1386.8333      1244.5495      2588.6989      4.2240914    
  12220000   299.51378     -1382.3323      1297.7916      2593.8403      8.9931746    
  12225000   300.12856     -1356.3442      1271.0583      2598.5928      5.8911115    
  12230000   296.25109     -1355.3223      1204.8836      2498.7661     -1.7735824    
  12235000   305.13696     -1400.7596      1236.4385      2564.3448     -18.655435    
  12240000   297.00414     -1399.0739      1273.5368      2530.4016      1.3393122    
  12245000   302.0976      -1409.2082      1245.4687      2537.7473      9.7289207    
  12250000   303.45201     -1398.6725      1254.0695      2568.9953      4.5618528    
  12255000   303.99661     -1404.8702      1245.2367      2558.835       9.2860263    
  12260000   303.83388     -1423.9538      1269.8343      2562.8937     -0.31687697   
  12265000   297.56356     -1409.9311      1241.3117      2492.322       20.859603    
  12270000   311.54302     -1411.5908      1263.6519      2638.0128      4.6662892    
  12275000   300.89959     -1416.2216      1240.4114      2514.9633      8.4800622    
  12280000   299.04988     -1423.4571      1262.5533      2513.3289      1.9642514    
  12285000   301.55624     -1382.2024      1309.1377      2623.581       3.980901     
  12290000   314.84992     -1384.3762      1232.6221      2663.7694      18.199251    
  12295000   298.1684      -1397.3045      1279.8707      2548.9163      3.259031     
  12300000   299.37871     -1370.4036      1239.1088      2545.8784      29.271346    
  12305000   298.67208     -1336.0031      1270.896       2605.7471      1.083412     
  12310000   302.38523     -1367.6231      1314.1538      2650.5894      17.694547    
  12315000   299.09395     -1360.6958      1263.9646      2577.8956     -9.5307358    
  12320000   298.30533     -1339.0999      1261.7456      2590.2203      13.17103     
  12325000   299.49245     -1373.4577      1321.4277      2626.1603     -6.8383798    
  12330000   303.90974     -1391.297       1274.945       2601.3397      13.922602    
  12335000   299.72269     -1396.5283      1261.4665      2545.1875     -0.10695178   
  12340000   302.98469     -1414.5787      1252.9651      2547.8059     -17.482503    
  12345000   306.53308     -1431.9001      1301.8824      2611.133       7.4033479    
  12350000   300.028       -1428.9196      1207.788       2461.8477      12.778433    
  12355000   299.32882     -1460.4286      1271.5818      2487.8802      8.7826814    
  12360000   301.63255     -1460.0554      1307.5492      2544.8218     -7.5905868    
  12365000   300.4077      -1397.4082      1283.9557      2572.9223     -2.6624412    
  12370000   301.46249     -1418.7425      1263.8439      2540.9087     -6.0292798    
  12375000   312.83056     -1421.9249      1230.8471      2606.3877      5.3829822    
  12380000   290.34468     -1441.2221      1280.7025      2435.8674      1.4291413    
  12385000   302.60495     -1422.2938      1256.096       2539.8259      4.2240429    
  12390000   303.15091     -1411.4051      1257.0947      2556.5954      5.9675268    
  12395000   294.76341     -1414.3041      1217.6643      2439.2614      5.6501312    
  12400000   302.2734      -1432.2479      1252.2217      2523.0326      6.1504455    
  12405000   302.4342      -1474.5364      1348.3242      2578.2845      11.66721     
  12410000   296.36511     -1439.3896      1252.4325      2463.2672     -1.6139064    
  12415000   292.82914     -1436.9406      1264.8249      2446.4884      3.8016815    
  12420000   289.33224     -1466.3973      1221.8568      2342.7929      14.946143    
  12425000   297.44615     -1457.8585      1295.1186      2497.1515      8.8629705    
  12430000   298.66125     -1447.405       1219.5679      2442.9202      4.1819058    
  12435000   303.81899     -1421.6581      1275.1525      2570.3745     -9.679605     
  12440000   291.55717     -1386.5908      1307.3069      2527.9457      7.075017     
  12445000   296.41532     -1422.3965      1246.1844      2474.4613      1.5687093    
  12450000   298.92706     -1410.0482      1282.1241      2545.2103     -7.6554157    
  12455000   296.39982     -1424.4097      1263.7214      2489.8464      0.75944949   
  12460000   306.92272     -1446.7018      1298.7446      2596.6778      1.0472123    
  12465000   301.35004     -1424.9119      1244.4435      2514.3333     -9.1719446    
  12470000   301.85101     -1440.0237      1306.1266      2565.3844     -2.6055226    
  12475000   302.92711     -1410.2974      1297.6612      2596.2682     -2.707212     
  12480000   299.7178      -1459.5169      1263.8234      2484.512       17.412719    
  12485000   312.56323     -1429.8659      1217.9909      2583.1998      7.6736164    
  12490000   300.32804     -1435.6337      1287.214       2537.2428      14.072074    
  12495000   308.48793     -1418.4052      1324.3698      2664.5963      4.0814162    
  12500000   303.58741     -1389.1709      1251.8323      2577.4706      8.2224306    
  12505000   297.35882     -1425.511       1249.4156      2483.0151      22.23369     
  12510000   299.4454      -1451.3458      1308.5257      2534.9496      5.4962992    
  12515000   300.4787      -1453.9898      1273.1746      2506.1946     -2.4801334    
  12520000   310.59836     -1436.2432      1288.2249      2629.4859     -5.671123     
  12525000   298.11786     -1458.1787      1267.5601      2475.2794      7.6032254    
  12530000   292.97677     -1439.4049      1256.236       2436.7555      7.0584218    
  12535000   306.53615     -1422.3128      1301.2547      2620.12        2.2175046    
  12540000   296.7162      -1429.9829      1285.4043      2508.7853     -4.1943583    
  12545000   302.26606     -1398.1146      1277.4208      2582.2993     -10.687367    
  12550000   294.49671     -1411.1675      1281.7498      2504.0986      5.0199664    
  12555000   299.88084     -1392.8607      1288.9184      2577.7212      0.28934888   
  12560000   300.9822      -1389.4651      1264.1916      2566.2387      5.6348334    
  12565000   299.23302     -1411.8979      1263.4019      2527.3744      2.738047     
  12570000   304.71323     -1420.3091      1256.4039      2560.9715      11.971242    
  12575000   300.85707     -1437.7172      1278.2054      2530.8816     -2.6964012    
  12580000   304.01505     -1446.1238      1251.7146      2524.2242      7.356483     
  12585000   298.35167     -1435.3259      1273.0074      2505.6705     -11.151613    
  12590000   299.60006     -1463.8887      1305.3844      2520.6482      0.49002926   
  12595000   300.10521     -1466.9273      1254.3388      2471.0814     -1.4956625    
  12600000   302.81321     -1429.6703      1283.4166      2561.6322      3.3565297    
  12605000   296.6897      -1459.1762      1308.1952      2502.1459     -0.7104113    
  12610000   295.22307     -1455.0687      1232.7598      2417.7029     -4.4729063    
  12615000   303.55362     -1475.8468      1238.6072      2477.2675      28.593188    
  12620000   294.46034     -1485.6031      1271.4479      2419.0359     -1.2033305    
  12625000   299.87426     -1433.2773      1253.2237      2501.551       8.8357969    
  12630000   297.02042     -1442.1202      1223.0149      2436.9791     -8.2281021    
  12635000   298.07782     -1437.8294      1247.6823      2475.393       22.913233    
  12640000   299.49306     -1450.5426      1246.7913      2474.4445     -6.8927619    
  12645000   297.25288     -1443.2916      1306.5987      2521.4702      10.111209    
  12650000   300.74578     -1437.4125      1269.0011      2520.9867      1.1251342    
  12655000   309.98837     -1458.9276      1267.4089      2580.5307     -5.2881335    
  12660000   297.65079     -1399.1003      1303.0198      2565.6409      11.595996    
  12665000   296.59113     -1421.402       1323.3326      2554.1761     -13.878703    
  12670000   300.57374     -1437.3891      1238.5646      2489.0352     -18.89966     
  12675000   297.1391      -1475.324       1296.8596      2478.6813      4.5234502    
  12680000   301.04914     -1466.1485      1240.4632      2466.4255      27.54566     
  12685000   297.79779     -1445.3169      1268.8506      2486.5696      0.50440849   
  12690000   301.78489     -1465.2633      1241.6047      2475.0316      15.451513    
  12695000   300.0746      -1452.2591      1231.5654      2462.7024      8.4368995    
  12700000   293.38678     -1490.0347      1254.6472      2388.2033      3.8004159    
  12705000   303.22074     -1491.1331      1276.233       2496.6302     -1.6707617    
  12710000   304.15864     -1513.0674      1215.6427      2422.4928      19.003035    
  12715000   292.43014     -1530.1747      1285.4326      2370.294       16.351157    
  12720000   300.0594      -1508.3946      1285.4549      2460.3206      8.8604955    
  12725000   299.3639      -1465.5748      1300.0233      2511.4893     -2.4357132    
  12730000   301.18604     -1438.4457      1243.182       2498.0714     -1.038191     
  12735000   298.92345     -1442.3619      1272.9215      2503.6617     -12.648417    
  12740000   295.8539      -1443.9776      1303.8249      2505.5002     -13.937958    
  12745000   307.79574     -1438.0294      1259.3261      2573.7386      21.236842    
  12750000   296.67091     -1465.2793      1242.1259      2429.8055      8.1469771    
  12755000   306.91687     -1458.9869      1276.7952      2562.391       4.4017723    
  12760000   297.47737     -1415.0204      1222.6665      2467.8167      25.108447    
  12765000   288.46721     -1454.5276      1259.0422      2384.1125      3.9080582    
  12770000   296.09344     -1476.2986      1276.8962      2448.3926     -10.001038    
  12775000   296.36935     -1477.4387      1246.1208      2418.9442      18.719375    
  12780000   292.08737     -1487.058       1257.3777      2382.2906      12.606839    
  12785000   308.29801     -1482.2499      1289.1898      2563.8734      11.940415    
  12790000   295.88565     -1458.1212      1273.7034      2461.519      -13.299061    
  12795000   300.97804     -1501.0127      1270.9337      2461.3961     -1.7689768    
  12800000   301.84156     -1488.8962      1280.5308      2490.8317      3.1458021    
  12805000   304.81725     -1484.2221      1227.0633      2468.6482      6.9060128    
  12810000   294.10148     -1485.9391      1259.0087      2403.0516     -18.653813    
  12815000   294.19642     -1472.3555      1295.7635      2454.239       8.8855247    
  12820000   298.92319     -1470.8292      1254.9921      2457.2626     -4.1207297    
  12825000   305.5751      -1470.5325      1238.2929      2500.3444      1.015911     
  12830000   302.43157     -1462.0794      1216.1505      2458.5442     -5.048852     
  12835000   308.46348     -1504.8301      1268.6368      2522.2199      3.7375634    
  12840000   302.23513     -1505.2621      1246.7334      2444.1879     -8.4528287    
  12845000   292.46545     -1475.0444      1230.0287      2370.3361      21.062427    
  12850000   297.2757      -1514.8029      1285.4129      2428.9773      4.7821794    
  12855000   301.01439     -1489.196       1230.5054      2433.1095      15.707672    
  12860000   303.29657     -1447.4631      1243.707       2508.4523      7.1320657    
  12865000   299.0162      -1449.4966      1257.3048      2481.7396     -5.5214054    
  12870000   312.99531     -1418.0833      1251.9479      2632.8033      21.89349     
  12875000   291.89076     -1466.2233      1254.315       2398.3045     -3.5516353    
  12880000   291.77239     -1446.9598      1224.0789      2386.2733      17.094001    
  12885000   298.27368     -1473.3972      1279.687       2473.5813      2.3023648    
  12890000   292.67087     -1444.9655      1263.16        2435.3833      3.9726324    
  12895000   300.48743     -1434.6152      1227.0584      2479.531       9.2547275    
  12900000   304.11647     -1429.1825      1220.2549      2510.6127      24.199521    
  12905000   300.70318     -1471.0517      1240.837       2458.8025      17.259384    
  12910000   298.52813     -1439.7868      1315.1456      2544.9258     -0.14938271   
  12915000   295.73858     -1439.2213      1290.7729      2496.1732      23.270217    
  12920000   301.30395     -1433.6008      1301.234       2562.0227      6.3379256    
  12925000   299.52658     -1470.2999      1265.6423      2473.8379      17.808723    
  12930000   303.21386     -1467.5178      1253.3221      2497.2731      0.36067475   
  12935000   296.12546     -1504.6603      1286.98        2430.401      -17.816659    
  12940000   303.47967     -1498.6292      1264.8416      2480.0581      2.2774901    
  12945000   301.56126     -1507.8705      1241.1203      2429.9403     -9.3832338    
  12950000   301.12909     -1563.1256      1254.5731      2384.2733      26.570077    
  12955000   302.91975     -1522.4701      1232.6876      2419.0562     -1.3437618    
  12960000   304.16114     -1514.8196      1272.6873      2477.8074      19.19086     
  12965000   295.36102     -1509.6309      1237.4189      2369.0334      19.341983    
  12970000   308.10121     -1522.4316      1264.5395      2497.2815      23.753754    
  12975000   302.6686      -1438.043       1267.9587      2536.5085      3.352455     
  12980000   300.89479     -1453.6221      1266.3544      2503.463       6.5045153    
  12985000   292.41223     -1467.8148      1239.9506      2387.0118      18.461282    
  12990000   300.12154     -1469.5255      1293.7481      2508.0385      8.4005077    
  12995000   302.86748     -1477.5369      1256.5477      2487.382       0.48723167   
  13000000   300.78759     -1503.5439      1239.6542      2425.8823     -11.096577    
  13005000   299.71489     -1457.3735      1267.2984      2490.1043      12.920052    
  13010000   305.03211     -1515.5371      1254.1655      2466.3567      5.1811883    
  13015000   300.85064     -1491.1763      1268.0621      2467.2216      2.3985922    
  13020000   303.10455     -1506.6502      1249.7551      2453.5962     -4.6226757    
  13025000   301.07871     -1539.8996      1274.1488      2426.6245      7.7248982    
  13030000   295.75336     -1528.2112      1274.0955      2390.6381      9.7478108    
  13035000   300.60213     -1513.5536      1299.2836      2473.8436      1.4683849    
  13040000   297.30454     -1533.3617      1281.9195      2407.1829     -10.324281    
  13045000   305.38015     -1482.0182      1257.3148      2506.1373      11.898568    
  13050000   292.43015     -1539.0477      1204.956       2280.9445     -11.653815    
  13055000   290.45481     -1536.5984      1261.7196      2322.4931      14.514196    
  13060000   287.64796     -1531.7037      1222.6503      2263.2184      18.327958    
  13065000   295.13559     -1554.1257      1265.6491      2350.7529      12.740824    
  13070000   298.65578     -1527.1324      1225.1979      2368.7739      13.009696    
  13075000   309.59151     -1490.5447      1271.5639      2549.5197      7.0234643    
  13080000   297.48723     -1515.3051      1274.4616      2419.4153     -9.5111965    
  13085000   306.00363     -1503.5556      1262.4839      2495.3444     -3.2668703    
  13090000   305.40822     -1506.8552      1252.1546      2476.3909      19.145849    
  13095000   298.81358     -1485.7165      1269.0696      2455.4727      12.067559    
  13100000   293.73025     -1488.1849      1275.2966      2413.7739      4.122691     
  13105000   301.20234     -1496.4983      1296.1949      2493.1775      14.604545    
  13110000   298.9077      -1525.1041      1248.6332      2396.4904      24.16628     
  13115000   307.13825     -1540.2007      1327.9317      2534.2934      10.937799    
  13120000   307.68398     -1518.1276      1275.983       2509.298      -8.9019123    
  13125000   303.32972     -1534.986       1248.0989      2425.6178      9.0259557    
  13130000   303.31933     -1507.0362      1294.1661      2499.5418      9.8174034    
  13135000   303.28936     -1514.764       1291.5868      2488.9667     -2.6469643    
  13140000   302.14103     -1502.3628      1275.9209      2475.4331      12.041674    
  13145000   303.16501     -1535.9584      1222.0623      2397.1359      9.1677815    
  13150000   299.08413     -1511.3922      1271.9542      2435.1009      3.3249718    
  13155000   291.47424     -1515.5399      1276.055       2367.0031     -4.3810508    
  13160000   293.5609      -1528.9533      1245.3747      2341.5693      7.7943102    
  13165000   306.52022     -1515.4928      1227.7631      2453.3059      20.543159    
  13170000   301.55212     -1512.7415      1317.623       2501.4902     -3.2677385    
  13175000   300.10049     -1485.9779      1263.681       2461.3308      17.920069    
  13180000   300.89313     -1480.9263      1283.2717      2493.0611      9.949778     
  13185000   303.97263     -1467.7458      1198.9253      2449.4335      3.2367055    
  13190000   295.5227      -1495.3064      1296.3412      2443.7259      5.1964848    
  13195000   296.15926     -1462.4383      1318.1444      2504.0896      0.71392662   
  13200000   308.97034     -1428.7874      1244.9924      2579.1507     -10.3711      
  13205000   305.66511     -1435.0183      1278.9698      2577.3405      4.9159454    
  13210000   298.26649     -1456.8845      1230.5808      2440.9236      6.4718859    
  13215000   300.21193     -1482.3296      1295.1779      2497.4725     -3.8632711    
  13220000   294.97123     -1494.2841      1262.0884      2405.564       15.549568    
  13225000   300.32441     -1529.557       1301.176       2457.249       20.334631    
  13230000   298.37342     -1536.4063      1283.548       2415.3252     -1.2039523    
  13235000   301.96388     -1509.5158      1202.9187      2393.6938      7.2601572    
  13240000   305.606       -1528.8093      1309.7988      2513.8498     -6.5325885    
  13245000   299.48029     -1530.2157      1226.9102      2374.7761      7.6914955    
  13250000   302.43189     -1501.2183      1216.6004      2419.8581      9.0425186    
  13255000   297.09332     -1495.9153      1246.0509      2406.8719      22.104785    
  13260000   299.95727     -1528.4574      1301.3075      2455.197       2.1039316    
  13265000   301.05564     -1447.0407      1285.1985      2530.3269      13.70155     
  13270000   291.35629     -1466.0651      1258.8026      2398.1708     -0.017470954  
  13275000   303.68655     -1429.5088      1231.8687      2518.0557     -4.7128185    
  13280000   303.55826     -1428.0762      1252.8198      2539.2921     -0.69473063   
  13285000   300.13943     -1420.5824      1246.6296      2510.0231     -0.39698061   
  13290000   299.99055     -1416.0985      1304.0719      2570.6179     -11.548339    
  13295000   294.23065     -1435.0861      1301.8989      2497.9498      12.067242    
  13300000   304.48854     -1419.29        1263.1793      2566.7567      10.656034    
  13305000   291.93512     -1399.7397      1244.0157      2454.8854      10.969081    
  13310000   295.33293     -1435.7821      1294.8572      2500.0691      19.378446    
  13315000   305.99303     -1428.6612      1269.9116      2577.5717      2.6005229    
  13320000   304.17866     -1438.2477      1284.8617      2566.7104      1.0802509    
  13325000   300.35642     -1401.5814      1264.847       2549.1819      14.15328     
  13330000   289.69979     -1427.02        1261.3107      2424.9109      13.803108    
  13335000   299.92119     -1401.1807      1238.1451      2518.9887      2.2146557    
  13340000   296.96546     -1415.6814      1245.9916      2485.903       11.379033    
  13345000   301.16354     -1412.953       1232.8007      2512.9816     -3.3820624    
  13350000   301.42541     -1456.2756      1313.581       2552.7811      13.912548    
  13355000   299.66731     -1478.2742      1277.3665      2478.8462     -4.1232797    
  13360000   297.01715     -1448.5097      1274.7664      2482.3118     -5.1975989    
  13365000   300.46429     -1454.4579      1243.3689      2475.792       11.634246    
  13370000   302.75554     -1487.0996      1237.2367      2457.5073     -1.0558541    
  13375000   301.50374     -1462.4453      1271.7711      2505.5019      13.941895    
  13380000   306.4852      -1462.4601      1269.4479      2547.7102      4.745123     
  13385000   304.23177     -1451.6434      1195.1978      2464.1258     -0.57831971   
  13390000   298.94053     -1451.9588      1271.7785      2493.0746      6.9318086    
  13395000   307.65624     -1454.2137      1250.7549      2547.7356      12.836923    
  13400000   302.10936     -1418.9616      1258.3828      2541.013       0.03996617   
  13405000   296.89907     -1422.3121      1261.3126      2493.9997     -6.6180741    
  13410000   297.18705     -1446.9241      1270.7496      2481.3999     -3.5689676    
  13415000   302.70757     -1472.3426      1294.2772      2528.8759     -2.4881268    
  13420000   297.5492      -1551.795       1235.4837      2344.5016      1.725725     
  13425000   294.37463     -1531.5131      1230.5698      2331.4813     -2.4531436    
  13430000   298.46261     -1538.3022      1254.6384      2385.3173     -13.455021    
  13435000   303.87178     -1520.4752      1204.2688      2401.1458      16.528962    
  13440000   300.48493     -1553.6931      1307.7744      2441.1469      9.2464975    
  13445000   299.40189     -1528.471       1248.2218      2397.1313     -3.5344896    
  13450000   303.85474     -1517.1997      1255.7147      2455.7149      13.28959     
  13455000   303.04229     -1513.9839      1284.1189      2480.0694      4.1865269    
  13460000   301.81626     -1472.8         1251.4861      2477.6569      9.7589854    
  13465000   296.93269     -1474.1281      1295.6856      2476.8574     -6.5584473    
  13470000   303.90124     -1465.7103      1246.9462      2498.8515     -14.099337    
  13475000   296.5019      -1491.2747      1251.7927      2411.9656     -0.23298388   
  13480000   303.4256      -1470.7772      1308.5456      2551.1305     -1.9593883    
  13485000   302.44715     -1530.1077      1322.6557      2497.1606      7.1685158    
  13490000   298.98595     -1508.4901      1248.4933      2413.6641     -1.1795847    
  13495000   298.57131     -1510.6921      1255.9069      2415.1678      6.2423535    
  13500000   309.94356     -1505.9423      1215.2047      2480.911       14.600175    
  13505000   303.13191     -1504.4099      1244.1228      2450.4488     -4.747199     
  13510000   302.09517     -1524.6696      1245.9824      2422.7777      4.7569108    
  13515000   305.06593     -1520.8614      1259.6326      2466.802       2.2534639    
  13520000   305.61377     -1517.1954      1260.7472      2476.4816     -4.7232012    
  13525000   297.01573     -1520.8971      1247.8536      2382.9989     -5.262285     
  13530000   295.92696     -1560.4633      1279.5637      2365.4066      10.724446    
  13535000   300.23964     -1560.6661      1296.004       2420.2099      5.5874481    
  13540000   296.75698     -1554.2822      1247.707       2347.1534      18.071584    
  13545000   299.0276      -1600.0342      1220.7824      2294.7816      0.37656118   
  13550000   297.39179     -1522.521       1317.1437      2454.0279     -5.0393152    
  13555000   303.0211      -1582.3632      1251.7534      2379.1352      8.6422226    
  13560000   293.3474      -1526.8298      1257.0623      2353.4712     -8.2107049    
  13565000   307.2186      -1537.7528      1253.9525      2463.4806     -0.4542518    
  13570000   307.67786     -1509.3911      1256.1092      2498.1059      7.4386846    
  13575000   306.97232     -1495.3354      1281.8391      2531.5823      23.666604    
  13580000   298.47143     -1498.9444      1250.2259      2420.3415     -2.7433068    
  13585000   297.76681     -1445.5241      1257.9154      2475.1502      2.2111026    
  13590000   307.88672     -1463.4638      1276.9262      2566.7179      0.77299659   
  13595000   299.7865      -1430.7921      1274.1925      2524.2202      2.9052081    
  13600000   296.86622     -1426.3375      1265.547       2493.9149      8.3061227    
  13605000   304.81286     -1424.6886      1294.304       2595.3831     -7.7276521    
  13610000   297.58108     -1444.1858      1272.3355      2489.2478     -2.1755098    
  13615000   298.69199     -1471.8979      1233.5675      2432.7018      12.130409    
  13620000   304.25915     -1491.5916      1262.9729      2492.1975      2.5814364    
  13625000   300.58928     -1490.555       1280.5561      2477.9998      3.8268433    
  13630000   304.56168     -1500.7574      1240.4048      2463.1689      3.7231593    
  13635000   298.27294     -1499.1093      1294.7106      2462.8861     -2.5647118    
  13640000   301.41617     -1492.2706      1230.6518      2433.7744      11.026683    
  13645000   296.62356     -1493.078       1231.3453      2390.8028     -5.5556517    
  13650000   297.77213     -1527.9285      1234.3393      2369.2173      1.1322361    
  13655000   294.84273     -1516.8293      1236.5868      2356.368       16.549765    
  13660000   302.65045     -1514.1913      1279.8515      2472.0907      12.550395    
  13665000   304.19138     -1535.6071      1241.1674      2425.7705     -3.2361082    
  13670000   301.82834     -1544.696       1253.8401      2408.223       19.318683    
  13675000   301.43753     -1556.7987      1237.5035      2376.2889      3.9094456    
  13680000   300.45418     -1559.1287      1272.2954      2399.9572     -9.2315472    
  13685000   306.35158     -1571.5944      1273.484       2441.4173     -3.6235587    
  13690000   302.51851     -1568.5827      1248.526       2385.194       0.3831274    
  13695000   291.03449     -1562.3322      1267.383       2307.6064      22.427809    
  13700000   300.79609     -1563.3245      1283.9411      2410.4646      2.3898011    
  13705000   303.62402     -1544.2511      1235.0881      2405.9736      25.224585    
  13710000   291.91382     -1545.1731      1253.0677      2318.3135      1.7584604    
  13715000   304.35805     -1525.3101      1242.1268      2438.5173     -6.606753     
  13720000   296.39659     -1537.4904      1280.3299      2393.3454      11.711246    
  13725000   300.83639     -1534.165       1251.0011      2407.0446      8.5301425    
  13730000   294.28986     -1565.7689      1269.5104      2335.408       2.7344557    
  13735000   300.73289     -1570.6347      1274.0536      2392.7018     -3.5097359    
  13740000   300.71773     -1533.5496      1261.8007      2417.3984      13.242018    
  13745000   302.20097     -1525.6069      1245.9507      2422.7549     -6.0916418    
  13750000   295.66947     -1511.5037      1191.7015      2324.2014      4.2995381    
  13755000   304.53673     -1485.1336      1225.8691      2464.0339      4.1296004    
  13760000   291.96938     -1512.9832      1260.1788      2358.1114     -0.28682272   
  13765000   293.50992     -1499.9436      1240.3406      2365.0889     -6.6866214    
  13770000   299.88787     -1492.7287      1276.1618      2465.1594      16.101874    
  13775000   304.533       -1491.6959      1264.2608      2495.83        3.0317241    
  13780000   304.88771     -1467.8765      1243.8815      2502.4419      14.088015    
  13785000   294.01296     -1480.9312      1255.1345      2403.3937     -5.6931468    
  13790000   283.53359     -1477.0481      1230.3729      2288.8042      10.62081     
  13795000   302.71011     -1480.2089      1286.1246      2512.8796      6.8920795    
  13800000   298.4047      -1473.9251      1252.6403      2447.1784     -4.7798401    
  13805000   302.77881     -1493.3624      1270.5888      2484.8047      0.61287889   
  13810000   296.836       -1531.5724      1273.5384      2396.4012     -7.4115791    
  13815000   304.15806     -1512.0886      1292.6376      2500.4612     -5.7807126    
  13820000   294.24274     -1467.6569      1263.4632      2427.0515     -17.023404    
  13825000   307.81713     -1446.2532      1306.9133      2613.2932      20.015316    
  13830000   291.2115      -1463.9427      1259.3336      2399.5294      31.534666    
  13835000   298.38183     -1444.5913      1258.2193      2481.8867      17.769183    
  13840000   292.89409     -1456.9629      1229.9061      2392.1281     -0.56798487   
  13845000   303.20107     -1417.301       1268.2123      2562.2657     -7.2515697    
  13850000   293.71793     -1446.087       1280.597       2461.062       10.056362    
  13855000   302.79282     -1449.2492      1298.8957      2557.3501      3.3658786    
  13860000   301.37032     -1497.4804      1249.9405      2447.4432      0.34183106   
  13865000   298.61791     -1474.6068      1291.3378      2487.1008     -9.161536     
  13870000   290.17198     -1455.1168      1287.1257      2426.8515      6.9048002    
  13875000   299.98329     -1458.7385      1264.6372      2488.4784      7.1017403    
  13880000   309.43407     -1466.4928      1258.1396      2558.7393      2.912392     
  13885000   308.25848     -1466.0488      1270.9726      2561.5037      5.8781689    
  13890000   302.30146     -1443.5675      1344.9464      2604.6885      1.5820127    
  13895000   298.36188     -1494.1432      1242.9382      2416.8753     -11.012885    
  13900000   299.76939     -1506.7425      1210.3597      2384.284       7.2504692    
  13905000   298.54938     -1449.2774      1265.4684      2485.9479      0.19875258   
  13910000   305.00946     -1438.7869      1241.751       2530.4899      2.1334411    
  13915000   298.24628     -1486.14        1313.292       2494.1985      3.8178629    
  13920000   302.14576     -1459.7884      1232.8324      2474.9613     -12.975887    
  13925000   296.40345     -1462.1478      1249.5895      2438.0089     -3.9270247    
  13930000   301.82234     -1445.2647      1260.5538      2514.3144     -4.6898563    
  13935000   302.69971     -1493.0823      1213.4774      2427.266       9.5036183    
  13940000   298.93582     -1484.2323      1274.6484      2463.6287      8.6035122    
  13945000   303.63179     -1477.3033      1220.853       2458.7557      12.824722    
  13950000   297.37424     -1471.8908      1248.8812      2436.2387      8.0603638    
  13955000   301.02852     -1504.8824      1216.3916      2403.4357      2.2866319    
  13960000   311.62982     -1513.3649      1289.5463      2562.9094      16.088311    
  13965000   294.84701     -1500.7726      1241.8801      2377.7563      5.1707986    
  13970000   305.25636     -1449.345       1258.4687      2538.8574      24.086708    
  13975000   300.02294     -1486.3877      1312.4593      2509.0058      16.374408    
  13980000   298.80389     -1471.1164      1254.2145      2455.131       10.927858    
  13985000   303.23443     -1475.0129      1264.4929      2501.1326     -9.7204676    
  13990000   292.76213     -1466.1482      1234.6416      2386.4983      0.3773045    
  13995000   299.59063     -1475.3846      1206.2512      2409.9348     -3.8135069    
  14000000   301.06421     -1484.5343      1263.9918      2471.7031      3.7210222    
  14005000   301.68739     -1473.3267      1245.8851      2470.3768      3.1343179    
  14010000   291.16039     -1487.7106      1317.7643      2433.7352      3.5849094    
  14015000   305.38498     -1463.0682      1263.5165      2531.3321      9.0992749    
  14020000   304.68784     -1471.7042      1256.5141      2509.4597      17.211476    
  14025000   299.32057     -1474.0148      1270.0239      2472.6625     -7.2985945    
  14030000   299.96302     -1447.2897      1265.2787      2500.3874      21.579812    
  14035000   311.46621     -1480.0852      1240.4591      2545.6387      2.1125688    
  14040000   297.72396     -1440.6789      1284.378       2506.0749      19.843529    
  14045000   301.89434     -1456.4213      1280.1691      2523.4169     -14.05036     
  14050000   293.85927     -1442.0458      1232.8435      2418.6137     -9.2016326    
  14055000   298.39983     -1455.2287      1264.9088      2478.0998     -14.190569    
  14060000   300.60354     -1466.8392      1259.6294      2480.9163      24.897482    
  14065000   300.9272      -1444.27        1243.5695      2490.3199      17.407976    
  14070000   303.43286     -1467.5065      1289.7377      2535.6584     -8.7055794    
  14075000   306.23169     -1464.2251      1237.807       2512.0374      19.840866    
  14080000   306.05475     -1474.5337      1230.6222      2492.9617      6.5518451    
  14085000   306.3466      -1485.4961      1266.9931      2520.9801      12.063782    
  14090000   298.76101     -1463.701       1218.8621      2426.8106      18.669389    
  14095000   291.50655     -1455.2376      1278.3445      2429.8838     -2.1564749    
  14100000   298.33293     -1475.137       1253.3952      2446.0796      13.96234     
  14105000   303.63047     -1487.6669      1273.5405      2501.0679     -0.86532959   
  14110000   305.76619     -1427.4405      1268.6149      2575.4671      3.9132133    
  14115000   306.87098     -1437.1578      1248.8848      2555.8993      9.108761     
  14120000   297.81836     -1460.3703      1239.8841      2442.7336      6.89968      
  14125000   301.70657     -1469.6411      1286.2858      2514.6346     -4.4236353    
  14130000   305.13044     -1485.2077      1294.9289      2538.3289     -5.011776     
  14135000   299.29371     -1503.9417      1283.217       2455.6884      3.6949745    
  14140000   306.09844     -1478.0235      1297.4693      2556.7097      2.6308105    
  14145000   298.57626     -1507.2092      1221.3656      2384.1537      8.1747065    
  14150000   296.76279     -1486.267       1275.624       2443.1376      4.3799775    
  14155000   298.05842     -1478.6409      1239.4182      2426.1438      9.7333364    
  14160000   298.7284      -1522.6436      1313.5063      2462.2206      28.973106    
  14165000   304.13999     -1483.9175      1211.5046      2447.3377      5.432969     
  14170000   299.78953     -1484.2781      1273.5571      2470.1258      23.444881    
  14175000   296.69362     -1518.2455      1242.8247      2377.7412      20.61225     
  14180000   292.47572     -1497.5688      1272.8986      2390.7734     -2.6725504    
  14185000   297.92549     -1465.1445      1281.0389      2480.0723      6.774053     
  14190000   301.22505     -1487.6669      1292.1912      2498.2083      15.010678    
  14195000   296.92664     -1475.1905      1192.9579      2373.0132     -8.4046827    
  14200000   307.01877     -1459.3934      1247.1963      2533.2968     -8.5753548    
  14205000   301.01766     -1459.9707      1280.2177      2512.0764      17.014755    
  14210000   294.00189     -1461.8352      1248.9239      2416.1801     -1.3398201    
  14215000   289.93477     -1452.0279      1305.1377      2445.8312     -8.1406161    
  14220000   302.37443     -1468.3173      1266.1405      2501.7853      17.221305    
  14225000   299.6554      -1454.8737      1276.0296      2500.8033      11.972694    
  14230000   302.27676     -1414.1402      1284.001       2572.9497     -0.70921561   
  14235000   301.06287     -1423.5216      1282.4274      2551.1395     -4.710182     
  14240000   301.15676     -1410.1813      1223.6411      2506.5331      11.579899    
  14245000   302.36466     -1394.8017      1270.0491      2579.1222      1.2896825    
  14250000   305.06459     -1393.565       1266.2183      2600.6721      28.736196    
  14255000   304.2656      -1370.4606      1257.145       2607.5582     -3.4879072    
  14260000   305.4568      -1370.2714      1264.0751      2625.3298      0.15929567   
  14265000   294.43636     -1431.9074      1288.5563      2489.6255     -6.4309755    
  14270000   298.83171     -1413.7941      1261.9425      2520.4301     -11.027598    
  14275000   304.60339     -1429.1459      1249.2427      2543.9913      6.200733     
  14280000   300.90438     -1453.4174      1255.3936      2492.7926     -0.37001765   
  14285000   297.66801     -1498.8405      1275.4205      2438.4553      6.3909058    
  14290000   305.76057     -1482.2753      1259.0758      2511.0431     -18.088704    
  14295000   305.77204     -1494.1249      1277.9913      2518.2115      4.4233695    
  14300000   297.71414     -1503.7728      1272.291       2430.8062      1.4889792    
  14305000   300.88615     -1536.5864      1227.8081      2381.8751      1.7426479    
  14310000   308.00131     -1506.6876      1257.2531      2504.8457      9.7254802    
  14315000   303.43441     -1507.2556      1273.3475      2479.5329      13.348274    
  14320000   306.06843     -1526.5847      1237.9918      2448.4027      18.041365    
  14325000   300.55638     -1529.1132      1255.963       2414.5542      6.6546283    
  14330000   298.9566      -1490.6934      1300.2158      2482.9209     -0.72028924   
  14335000   296.53311     -1468.239       1234.4943      2417.9819      0.021711199  
  14340000   296.38384     -1482.59        1251.7069      2419.5086      1.4414781    
  14345000   299.42724     -1494.4234      1278.3123      2461.4961      8.7898577    
  14350000   294.86831     -1478.8874      1225.3109      2383.2628      0.68608929   
  14355000   300.88186     -1487.7544      1256.3455      2459.2061      9.0370458    
  14360000   301.71017     -1508.4173      1266.1817      2455.7866     -2.2570618    
  14365000   300.50197     -1513.6089      1230.2688      2403.8778      11.192037    
  14370000   302.76536     -1487.5771      1279.6601      2499.541       9.1592835    
  14375000   306.50836     -1472.3461      1243.7265      2512.31       -2.5464375    
  14380000   313.19794     -1502.0967      1292.9614      2591.6154      17.258489    
  14385000   295.59835     -1476.285       1209.5148      2376.5974     -5.9326858    
  14390000   298.18065     -1466.3714      1236.5945      2436.6828      9.2447193    
  14395000   303.65811     -1482.1722      1242.3976      2475.6669      5.0680556    
  14400000   305.20351     -1453.7322      1282.8559      2558.3847     -9.5896131    
  14405000   304.69966     -1501.5582      1319.9927      2543.19       -8.0872768    
  14410000   299.97384     -1491.5983      1269.9409      2460.8377      15.312999    
  14415000   308.25103     -1480.1666      1263.9992      2540.3459     -0.64040635   
  14420000   301.88488     -1468.1699      1276.759       2508.1736      24.43886     
  14425000   306.47721     -1470.7925      1270.1838      2540.0423      8.3101131    
  14430000   304.01228     -1456.3199      1267.5432      2529.8319      22.138126    
  14435000   292.83395     -1461.9615      1237.1026      2393.7882      8.16878      
  14440000   294.41909     -1453.1744      1285.9197      2465.5674      20.218833    
  14445000   304.49395     -1435.1704      1273.8888      2561.6343      5.2587473    
  14450000   307.84504     -1460.6692      1284.1838      2576.3974      4.7041819    
  14455000   307.08177     -1450.0823      1263.8845      2559.8594      16.890771    
  14460000   301.82482     -1464.1153      1266.046       2500.9781     -2.0086528    
  14465000   291.19836     -1473.4001      1256.8968      2387.5177      8.4104956    
  14470000   294.55866     -1461.02        1247.6851      2420.7353      8.5779546    
  14475000   293.26455     -1461.611       1230.1646      2391.0513      5.6533333    
  14480000   304.91686     -1494.2383      1300.8075      2533.267       27.889586    
  14485000   294.98478     -1509.6667      1271.8603      2400.0744     -17.783482    
  14490000   296.08582     -1513.8853      1273.1029      2406.9444      15.230303    
  14495000   301.65436     -1477.1701      1245.0612      2465.4141      0.61215917   
  14500000   298.55723     -1489.8164      1277.6167      2457.6275      21.162061    
  14505000   300.99321     -1489.2209      1289.536       2491.9258      10.956475    
  14510000   295.91273     -1482.2458      1297.4632      2461.3963     -18.279003    
  14515000   291.62199     -1485.8703      1274.5409      2396.4798     -1.8569298    
  14520000   301.99873     -1435.2794      1286.3944      2551.7176      15.199446    
  14525000   297.02276     -1447.114       1215.5706      2424.5618      7.4988857    
  14530000   298.02424     -1428.0322      1254.2791      2491.3079      6.4872373    
  14535000   301.17757     -1401.7149      1291.6965      2583.241       6.6637201    
  14540000   301.59547     -1431.4041      1275.8573      2541.4495      12.318286    
  14545000   298.50801     -1438.8376      1271.3499      2501.8993     -15.755881    
  14550000   303.64153     -1456.4439      1255.6565      2514.5057     -1.0333851    
  14555000   305.51709     -1490.0459      1208.5095      2450.5289      11.245672    
  14560000   299.67461     -1490.26        1267.8884      2457.4477      7.3682683    
  14565000   298.7452      -1480.0371      1302.7715      2494.2425     -2.369797     
  14570000   303.73551     -1484.1277      1289.1709      2521.1767      6.0462874    
  14575000   298.485       -1452.5182      1229.7647      2446.4277      0.047539863  
  14580000   304.61519     -1464.1715      1262.534       2522.3625      7.1743312    
  14585000   305.58825     -1460.3239      1301.4207      2573.7984      9.1190411    
  14590000   301.23421     -1425.1264      1245.2421      2513.8816      4.4533597    
  14595000   301.61486     -1455.7224      1276.1852      2517.6326      11.792264    
  14600000   301.57611     -1438.1297      1275.3726      2534.0663     -2.5733736    
  14605000   304.32264     -1446.7691      1210.8626      2485.4775      7.5530846    
  14610000   301.24434     -1461.7282      1313.2859      2545.4142     -9.9028488    
  14615000   304.87838     -1487.9947      1314.5226      2552.8815      12.143952    
  14620000   295.62184     -1479.9258      1273.8638      2437.5157      0.86833724   
  14625000   298.44048     -1484.7175      1264.8865      2448.9522     -6.6609534    
  14630000   299.396       -1466.2639      1262.1543      2473.2182      4.179792     
  14635000   308.1857      -1463.6095      1241.9471      2534.2667      2.8518686    
  14640000   299.28412     -1441.4929      1274.8446      2509.679       15.074572    
  14645000   298.11606     -1424.3151      1298.9022      2540.4692     -6.5415493    
  14650000   302.52741     -1440.4078      1245.8645      2510.787       3.1033854    
  14655000   303.05163     -1425.48        1212.252       2496.79        28.235384    
  14660000   299.24869     -1477.8718      1244.4723      2442.6111      10.645611    
  14665000   301.00177     -1471.879       1289.5104      2509.3186     -10.011763    
  14670000   291.32744     -1458.9143      1268.4504      2414.7114      1.6818358    
  14675000   302.03447     -1418.0759      1291.3863      2574.2326      2.2056935    
  14680000   295.42515     -1427.361       1271.4391      2485.8969      7.7759513    
  14685000   304.29065     -1437.8936      1265.6285      2548.8328      0.77309249   
  14690000   306.36351     -1435.8241      1270.6772      2574.4874      3.8482385    
  14695000   302.91912     -1404.9038      1258.0797      2562.0089     -0.68775513   
  14700000   303.93233     -1405.4689      1240.8222      2553.2469      11.248267    
  14705000   302.99129     -1379.7461      1221.8603      2551.5927      10.898744    
  14710000   295.27122     -1432.8875      1299.5948      2507.1495      11.982058    
  14715000   292.34985     -1420.5586      1257.0171      2450.7767     -2.8493615    
  14720000   299.34735     -1429.9859      1286.9535      2533.8604      15.114724    
  14725000   303.50159     -1435.8307      1293.4496      2571.6607     -12.316907    
  14730000   296.62999     -1434.2093      1279.9579      2498.3416      17.852657    
  14735000   298.85944     -1413.3847      1250.6681      2509.813       17.331809    
  14740000   294.52166     -1442.4436      1212.4005      2403.6963      11.727335    
  14745000   296.69485     -1404.4743      1306.6393      2555.338       1.3551888    
  14750000   298.8533      -1408.1535      1266.0396      2530.3609      17.35785     
  14755000   298.12829     -1425.6098      1292.4422      2532.8238     -6.218158     
  14760000   307.95514     -1449.4369      1289.1681      2593.5985      9.7621607    
  14765000   297.63537     -1463.2183      1261.7188      2460.084       2.2286524    
  14770000   300.26043     -1497.9087      1281.0221      2468.1713      6.7511041    
  14775000   293.79181     -1463.0103      1255.1718      2419.3742      2.3598783    
  14780000   300.75715     -1456.638       1273.56        2506.4218      3.2679364    
  14785000   292.95835     -1475.8886      1270.0609      2413.932       9.1283763    
  14790000   302.41875     -1459.1278      1249.48        2494.7107     -9.9581783    
  14795000   299.57174     -1422.5714      1263.2337      2519.5616      1.1304004    
  14800000   298.05963     -1422.8455      1222.7347      2465.2666      7.7842664    
  14805000   295.68849     -1425.013       1281.777       2500.9377      8.1972246    
  14810000   297.7074      -1434.1674      1292.5536      2520.6137      4.7341348    
  14815000   305.54187     -1455.3813      1242.9631      2519.8686      1.7745387    
  14820000   301.08704     -1487.0743      1274.2169      2479.5923      21.00128     
  14825000   301.93963     -1476.5412      1280.006       2503.5388      5.1136495    
  14830000   294.93968     -1438.0292      1278.8512      2478.2995      6.5520322    
  14835000   288.05662     -1427.6648      1317.3844      2465.6458      3.482119     
  14840000   299.86094     -1388.6824      1273.3564      2566.1595      12.199937    
  14845000   303.77082     -1407.0958      1267.3989      2576.7524      7.4985752    
  14850000   304.04481     -1413.9914      1276.4396      2581.3477      15.406991    
  14855000   302.94095     -1397.8363      1249.6816      2560.8736      18.15622     
  14860000   293.36063     -1416.0848      1263.2663      2470.5385      1.3099636    
  14865000   301.31688     -1407.3055      1275.6854      2562.8852      23.746696    
  14870000   294.01718     -1427.3019      1258.4669      2460.3931      31.063131    
  14875000   299.73041     -1456.2597      1287.2917      2511.3502      4.1079613    
  14880000   290.5346      -1423.2317      1242.3636      2417.2173      23.012034    
  14885000   299.9723      -1394.3756      1242.1116      2530.2173      17.109574    
  14890000   300.02509     -1409.5598      1257.2021      2530.5958     -13.379882    
  14895000   306.10096     -1405.5893      1278.1614      2609.8586      16.240224    
  14900000   304.74442     -1396.5164      1255.9098      2584.5491     -11.174247    
  14905000   302.84086     -1427.3044      1284.2114      2565.0401      20.862372    
  14910000   302.77099     -1441.5813      1276.3366      2542.2637      13.17546     
  14915000   297.28988     -1432.149       1320.308       2546.653      -1.5113327    
  14920000   305.69029     -1428.0999      1282.0586      2587.5727      28.766573    
  14925000   301.32042     -1418.1624      1236.8825      2513.2569      4.9413973    
  14930000   303.6731      -1437.6247      1239.0904      2517.0412      12.58127     
  14935000   297.39495     -1438.3738      1286.8858      2507.9456      4.0385587    
  14940000   296.52548     -1446.8463      1249.8221      2454.6342     -0.36453622   
  14945000   295.04064     -1435.875       1227.0004      2429.5058      19.925674    
  14950000   296.77603     -1447.0959      1238.7096      2445.5126      1.454832     
  14955000   303.38825     -1447.7993      1247.3731      2512.602       0.8382343    
  14960000   298.88733     -1465.8085      1226.4584      2433.429       20.242667    
  14965000   301.65774     -1470.3492      1237.457       2464.6611      10.028919    
  14970000   300.10979     -1455.3976      1251.698       2480.0111      3.6469128    
  14975000   297.67983     -1428.8596      1259.2078      2492.3294      12.735392    
  14980000   294.9307      -1463.6504      1234.3236      2408.0704      8.1425362    
  14985000   299.5439      -1431.2145      1254.7112      2502.147      -3.3534589    
  14990000   301.5663      -1417.9827      1268.8458      2547.5987      9.0368401    
  14995000   307.04606     -1416.5477      1291.2246      2620.4148     -1.4759758    
  15000000   307.33654     -1392.6152      1234.2992      2590.0195      9.0066107    
  15005000   292.62771     -1438.122       1303.9424      2482.6233      4.5322562    
  15010000   299.28645     -1454.6207      1283.7657      2505.4932     -1.4634049    
  15015000   292.94613     -1430.7325      1262.8687      2451.7866      9.3042235    
  15020000   306.02725     -1456.2761      1234.9781      2515.3293     -4.1817629    
  15025000   303.00407     -1485.4435      1274.4572      2498.6064      16.311425    
  15030000   309.48353     -1423.0633      1242.269       2586.7405      33.645636    
  15035000   300.63408     -1406.126       1289.2238      2571.4971     -4.1528937    
  15040000   296.65925     -1431.6324      1254.0937      2475.3159      8.4610784    
  15045000   292.66246     -1445.8138      1243.4085      2414.7083     -5.4055988    
  15050000   298.55268     -1453.5233      1267.8475      2484.1107      2.1969685    
  15055000   307.41665     -1447.4986      1264.6227      2566.176      -7.8585696    
  15060000   295.70708     -1508.0737      1236.0736      2372.3398      1.2990879    
  15065000   305.86035     -1477.0415      1251.3583      2509.4517      4.7319977    
  15070000   301.52892     -1525.9081      1268.1496      2438.6429     -1.4960352    
  15075000   301.93213     -1512.8681      1282.3474      2469.4862     -3.206694     
  15080000   299.75106     -1507.052       1308.2709      2481.7218     -8.3286246    
  15085000   301.36354     -1471.4708      1266.0006      2489.4522      2.0228233    
  15090000   303.13362     -1510.5621      1268.4338      2468.623       9.7207889    
  15095000   293.24959     -1485.7085      1219.4041      2356.0596      1.3597644    
  15100000   300.26847     -1502.6184      1252.9125      2435.4239     -4.4596035    
  15105000   299.31438     -1509.7053      1230.357       2397.2496      4.0885909    
  15110000   296.58854     -1511.3178      1265.8252      2406.7297      2.8135601    
  15115000   296.60488     -1497.2683      1239.4         2394.5002      3.4297316    
  15120000   304.52588     -1503.17        1286.5203      2506.5517      4.3947025    
  15125000   304.23688     -1484.3008      1215.104       2451.4203     -1.782539     
  15130000   303.04239     -1458.6787      1248.9803      2500.2371      24.974766    
  15135000   303.68951     -1447.3683      1226.7975      2495.1515      8.8983302    
  15140000   300.54942     -1440.9542      1249.7092      2496.3971      7.2146692    
  15145000   301.33192     -1407.7925      1247.1703      2534.0175      3.8966721    
  15150000   298.25131     -1474.6308      1217.2263      2409.687       13.907903    
  15155000   312.07167     -1483.4491      1287.4775      2594.7074      24.741488    
  15160000   300.14955     -1488.0037      1250.2319      2446.2946      3.9502835    
  15165000   306.36284     -1447.0595      1281.3221      2573.8909      11.217442    
  15170000   305.72404     -1451.8506      1266.5111      2548.5764      27.834485    
  15175000   305.38171     -1458.9175      1300.0272      2571.9643      19.325508    
  15180000   297.66404     -1451.2175      1262.2554      2472.8778      13.777774    
  15185000   297.03683     -1438.4817      1267.5783      2485.3277      15.918733    
  15190000   300.24619     -1433.4895      1305.378       2556.8191      11.798922    
  15195000   295.3902      -1451.0995      1311.7503      2502.157       6.7642461    
  15200000   295.80731     -1487.0111      1259.2429      2417.468       6.9897842    
  15205000   295.05028     -1536.412       1243.3134      2345.3679      9.7416718    
  15210000   297.96248     -1534.4708      1293.8639      2423.9018      2.618507     
  15215000   293.47253     -1514.9377      1283.4005      2392.8204      12.488333    
  15220000   297.80608     -1513.8465      1267.4968      2416.7604      23.862035    
  15225000   292.48779     -1486.7004      1254.5365      2383.3878     -3.7068898    
  15230000   302.20235     -1494.1492      1304.3172      2512.5915     -0.12155709   
  15235000   300.61128     -1493.1934      1227.7404      2422.7424     -1.0346856    
  15240000   300.24472     -1498.7402      1247.7109      2433.8881      8.8485198    
  15245000   301.88793     -1479.378       1327.1389      2547.3727      0.6520577    
  15250000   303.6443      -1449.3338      1226.615       2492.5991      0.84790723   
  15255000   295.95722     -1463.569       1277.9574      2460.9652     -0.18742258   
  15260000   295.86876     -1484.0087      1243.6101      2405.3872      0.040904719  
  15265000   303.47976     -1486.3085      1227.1658      2454.7038      1.9696297    
  15270000   302.40026     -1464.0621      1260.6092      2500.7403      9.1327515    
  15275000   296.9568      -1442.6561      1255.4111      2468.2704      9.7062768    
  15280000   296.94127     -1425.5732      1274.9931      2504.7966      0.79698076   
  15285000   301.76085     -1429.9185      1215.3421      2483.8989     -8.5859091    
  15290000   297.59566     -1443.8358      1332.3392      2549.7317      4.0768084    
  15295000   305.72077     -1440.1313      1319.798       2613.5533     -5.9726008    
  15300000   297.8709      -1445.1764      1199.2528      2417.7662      3.5764944    
  15305000   302.45447     -1453.5908      1281.2856      2532.3728      6.31854      
  15310000   308.14304     -1495.64        1237.0645      2496.9721     -7.1917912    
  15315000   300.02516     -1483.8073      1314.5025      2513.6492      15.455988    
  15320000   301.40444     -1491.1612      1255.6551      2459.7821      9.2869364    
  15325000   294.31696     -1514.6025      1271.3504      2388.6568      1.891483     
  15330000   296.57575     -1472.1061      1270.0436      2450.0454      9.3807195    
  15335000   304.13461     -1454.4182      1235.4898      2500.7742      12.721155    
  15340000   301.15817     -1474.4506      1285.1033      2503.7386      4.6511461    
  15345000   304.82832     -1478.3608      1268.677       2516.2221      6.4423484    
  15350000   298.00496     -1493.7583      1258.2577      2429.3879      3.2439329    
  15355000   305.493       -1449.2276      1274.1782      2556.8003      3.1691966    
  15360000   304.11195     -1498.0667      1294.5874      2516.0205     -1.1774769    
  15365000   306.34886     -1486.5661      1223.0437      2475.9809      11.538478    
  15370000   299.75888     -1495.8504      1267.484       2452.2064     -2.3302667    
  15375000   298.19297     -1465.9697      1255.146       2455.7461     -4.5917763    
  15380000   290.40876     -1486.2327      1217.6734      2328.4007      25.806682    
  15385000   300.02215     -1484.9564      1274.9317      2472.9024     -16.255045    
  15390000   306.94301     -1528.3075      1244.6346      2461.1436      20.798094    
  15395000   296.80679     -1504.8769      1283.0783      2432.3753     -9.7209727    
  15400000   296.2688      -1489.1121      1241.9945      2402.2454     -11.36404     
  15405000   301.65627     -1479.423       1298.0833      2516.2004      28.289949    
  15410000   303.04195     -1478.1012      1314.6475      2546.4778      5.1420187    
  15415000   311.11407     -1421.3659      1277.7547      2638.5046      12.619809    
  15420000   301.71055     -1499.8378      1290.6999      2488.8875      6.8131349    
  15425000   296.21835     -1465.0324      1282.9801      2466.8596      12.580773    
  15430000   296.77822     -1486.7696      1281.5903      2448.7392     -15.666244    
  15435000   299.54955     -1501.9559      1237.2724      2414.0175      5.7982948    
  15440000   292.50157     -1456.804       1224.0147      2382.8856     -10.852102    
  15445000   304.94724     -1430.909       1296.9023      2592.9627     -3.4147768    
  15450000   300.19901     -1462.8874      1278.9959      2500.6172      1.9156031    
  15455000   295.91693     -1467.5469      1299.1326      2477.8022      12.137962    
  15460000   305.09952     -1459.5343      1275.5036      2544.3005     -0.82599854   
  15465000   299.36559     -1464.0406      1242.8459      2455.8611      11.555732    
  15470000   292.86606     -1465.4504      1230.1524      2383.6362      14.148959    
  15475000   294.01088     -1453.8257      1290.5591      2465.9052     -5.7411658    
  15480000   303.84401     -1470.9195      1253.9456      2500.13        11.903133    
  15485000   305.25734     -1480.8573      1253.5812      2502.4664      1.3408298    
  15490000   303.89246     -1432.1394      1280.9526      2566.3503      1.562525     
  15495000   292.68158     -1445.2305      1259.3911      2431.4452     -0.31713932   
  15500000   297.27585     -1473.0132      1258.9286      2444.284      -4.2587956    
  15505000   298.89501     -1466.5744      1275.8775      2482.1508      0.1576857    
  15510000   296.58045     -1460.0442      1216.1211      2408.2269      8.9351266    
  15515000   302.44879     -1477.28        1256.1124      2483.4595      10.040579    
  15520000   301.20252     -1476.4687      1292.0922      2509.1059      22.961617    
  15525000   306.79368     -1444.1532      1261.8659      2561.1937      3.0444658    
  15530000   300.83476     -1430.0216      1283.5613      2543.7335      8.2347292    
  15535000   301.18267     -1454.5033      1262.3039      2501.1056      15.535738    
  15540000   293.5977      -1451.7569      1257.6317      2431.3517     -1.2198066    
  15545000   297.94589     -1456.7129      1308.7691      2516.4164     -3.5112321    
  15550000   298.62717     -1446.767       1246.679       2470.3646     -6.9721163    
  15555000   302.6455      -1452.9848      1303.3799      2556.7814     -6.142604     
  15560000   291.93718     -1493.4723      1271.5819      2388.7374      9.0114967    
  15565000   303.58575     -1489.3199      1274.4024      2499.8769     -1.9328313    
  15570000   295.78055     -1486.8469      1276.8467      2434.9968      8.0516936    
  15575000   298.2892      -1492.7759      1232.1796      2406.8341     -3.3149349    
  15580000   296.60424     -1506.5224      1250.822       2396.6623     -4.0571293    
  15585000   298.58325     -1543.1542      1211.0129      2337.9185      10.354921    
  15590000   298.0194      -1470.5275      1208.8073      2403.2975      6.8093037    
  15595000   296.85111     -1504.7583      1228.1938      2378.0058      15.292824    
  15600000   306.61825     -1484.6696      1238.5483      2495.791       10.213802    
  15605000   302.1153      -1474.8865      1239.2612      2466.0197      19.707258    
  15610000   301.49056     -1516.333       1273.8829      2453.6081      14.691095    
  15615000   300.2441      -1523.9817      1237.6924      2398.6226     -14.562436    
  15620000   301.22691     -1492.3023      1232.9644      2434.3627      9.011957     
  15625000   304.05473     -1472.9868      1246.9996      2493.001       10.222811    
  15630000   294.57059     -1473.4512      1223.842       2384.5678      5.3485205    
  15635000   295.11468     -1458.7938      1250.2267      2430.4753      5.3743457    
  15640000   289.22075     -1482.779       1282.6753      2386.2326      6.5935317    
  15645000   301.5677      -1499.447       1327.4564      2524.7575      6.0867872    
  15650000   289.90856     -1458.6547      1274.8364      2408.6687     -3.1859711    
  15655000   301.29416     -1535.0127      1268.405       2427.6942     -4.1601204    
  15660000   301.27933     -1476.0742      1272.0831      2490.1782      0.028868228  
  15665000   299.65578     -1468.5056      1259.5037      2470.649       17.361777    
  15670000   302.07407     -1462.6633      1282.6419      2521.2548     -5.6110343    
  15675000   301.83186     -1445.7846      1289.4003      2542.726       0.96856257   
  15680000   299.92493     -1425.8947      1228.4683      2484.6313      11.757557    
  15685000   296.57543     -1475.0913      1265.1821      2442.1958     -3.1847632    
  15690000   298.26668     -1467.147       1250.1621      2450.244       14.069491    
  15695000   296.17402     -1501.0772      1256.161       2403.5993     -14.37635     
  15700000   294.73839     -1479.634       1177.1404      2333.1838     -0.36103985   
  15705000   301.37577     -1468.8307      1277.4665      2503.6676      12.484019    
  15710000   296.49622     -1446.2647      1288.2218      2493.3539     -6.9566137    
  15715000   300.85941     -1447.3609      1227.1374      2470.1907      12.734309    
  15720000   297.69562     -1453.5414      1238.7104      2447.2913      20.080506    
  15725000   297.27581     -1486.3538      1250.2812      2422.2956      11.417461    
  15730000   298.44522     -1510.8275      1331.09        2489.088       19.194926    
  15735000   298.46852     -1502.7282      1286.5585      2452.8642      6.4815028    
  15740000   302.63543     -1479.7578      1230.0338      2456.5722      8.667346     
  15745000   297.57516     -1486.71        1260.2582      2434.5932      5.4295779    
  15750000   292.03235     -1493.0152      1252.7982      2371.2619      2.3244739    
  15755000   302.70136     -1434.1588      1297.8515      2570.5784      15.163602    
  15760000   291.8538      -1469.9198      1284.5974      2424.5598     -9.6265209    
  15765000   299.59261     -1493.6909      1301.5916      2486.9867      6.0229231    
  15770000   294.83287     -1509.6254      1249.927       2376.8239      5.164899     
  15775000   299.99355     -1464.949       1262.9501      2480.6724      11.50932     
  15780000   293.19556     -1464.0027      1287.2204      2445.0986      3.4977828    
  15785000   291.83701     -1440.0942      1228.0482      2397.6861     -5.8324076    
  15790000   300.64612     -1450.264       1255.4209      2493.6639      0.30021759   
  15795000   307.14262     -1451.6975      1232.5681      2527.4721      14.781693    
  15800000   287.15002     -1495.0407      1265.9682      2338.7465     -7.5416196    
  15805000   295.73196     -1455.7105      1244.4845      2433.3364      3.1206428    
  15810000   301.19816     -1469.5001      1247.9367      2471.8801     -2.38219      
  15815000   300.9207      -1485.5474      1236.0519      2441.4669     -3.9896613    
  15820000   295.08242     -1469.2569      1198.5784      2368.0755      0.23233078   
  15825000   313.70675     -1452.3439      1266.8548      2619.8115      10.24576     
  15830000   292.55175     -1461.4401      1265.7068      2420.3904      18.276662    
  15835000   297.73578     -1444.6252      1239.3764      2457.2326      11.55832     
  15840000   297.88241     -1444.3717      1288.7756      2508.1965      21.748104    
  15845000   295.73874     -1461.588       1216.4946      2399.5296      4.5632763    
  15850000   302.13979     -1463.8297      1297.0946      2535.129       10.953205    
  15855000   301.85033     -1451.5919      1325.8696      2573.5531     -4.0491064    
  15860000   295.83961     -1420.4885      1273.1349      2498.1715      7.4427427    
  15865000   307.93342     -1465.8672      1298.236       2586.042       9.8722869    
  15870000   301.83127     -1439.7712      1256.1536      2515.4875      8.6802532    
  15875000   296.93912     -1449.3903      1249.0849      2455.0519      21.691986    
  15880000   304.44315     -1430.7751      1268.0347      2559.7211     -3.70616      
  15885000   301.00275     -1400.7643      1234.3048      2525.2365      9.4938478    
  15890000   300.79597     -1404.513       1291.8964      2577.2303      5.3093458    
  15895000   301.49042     -1430.6498      1255.6409      2521.0481      10.064196    
  15900000   297.50035     -1456.7013      1256.5525      2460.2272      13.418582    
  15905000   301.64043     -1472.2471      1256.4594      2481.6107      28.840356    
  15910000   300.76816     -1432.7409      1276.2118      2533.0693      2.4156139    
  15915000   298.12212     -1433.7961      1307.4442      2539.5844     -9.5099952    
  15920000   301.08872     -1431.6385      1287.4494      2548.2758      13.399509    
  15925000   297.68683     -1414.5669      1262.5225      2509.9993      15.717602    
  15930000   303.63822     -1396.5992      1280.2715      2598.9358      7.9248538    
  15935000   309.76663     -1408.3787      1247.1672      2608.8549      5.8665858    
  15940000   302.69592     -1421.5359      1292.4893      2577.7905      2.7382969    
  15945000   298.68627     -1440.9276      1252.047       2482.1005      0.0072810425 
  15950000   296.47761     -1438.8895      1230.092       2442.4328      15.133544    
  15955000   295.51465     -1429.0459      1249.6333      2463.2065      1.5968376    
  15960000   297.02596     -1487.5786      1269.7088      2438.2641     -9.184092     
  15965000   302.84778     -1476.2291      1255.3356      2487.3017      6.1576279    
  15970000   302.01058     -1479.6821      1274.1943      2495.2208      12.659665    
  15975000   297.83441     -1411.3343      1245.7357      2497.7648      18.345753    
  15980000   296.67737     -1420.3733      1302.987       2535.6304     -2.3321763    
  15985000   294.65578     -1418.1956      1305.4681      2522.2112      11.204817    
  15990000   297.33949     -1412.0178      1273.1562      2520.076       7.1764533    
  15995000   289.43824     -1423.2904      1305.35        2470.3409     -14.481909    
  16000000   300.24261     -1433.4143      1273.6553      2525.1395     -9.8824704    
  16005000   295.00067     -1430.0885      1259.8234      2467.7577     -16.597067    
  16010000   307.71011     -1432.81        1233.0396      2551.9059      6.4003859    
  16015000   292.555       -1406.4071      1292.4047      2502.1502      6.7996307    
  16020000   303.33807     -1440.4624      1269.7228      2541.8399     -16.466015    
  16025000   298.86484     -1429.1409      1287.75        2531.1871      19.360312    
  16030000   299.92451     -1448.725       1262.7402      2496.0692      4.365219     
  16035000   302.57614     -1463.7189      1275.1963      2517.2435     -2.555631     
  16040000   300.46079     -1479.894       1273.1581      2480.1137      2.2224839    
  16045000   296.34597     -1481.7091      1240.4185      2408.7626     -0.95266381   
  16050000   301.9586      -1469.3648      1219.1562      2450.035       4.1296837    
  16055000   295.19879     -1502.5901      1246.6419      2383.8463      11.824849    
  16060000   298.55726     -1495.461       1308.5973      2482.9638     -5.5936633    
  16065000   299.21035     -1462.1272      1255.2884      2468.8288      10.218418    
  16070000   303.82525     -1485.5189      1274.524       2505.9412      3.0141038    
  16075000   302.80157     -1482.6672      1265.794       2490.9087     -1.3856979    
  16080000   295.53645     -1488.1224      1255.1292      2409.8208      0.16936297   
  16085000   303.33365     -1504.7648      1237.9346      2445.7097      2.796129     
  16090000   294.5887      -1437.5671      1280.1947      2476.9665      7.5408086    
  16095000   301.68273     -1484.8042      1236.622       2449.5945      2.8507079    
  16100000   302.16075     -1444.8973      1286.3832      2543.5372      8.994541     
  16105000   301.91977     -1473.3434      1262.6235      2489.1765      9.1378446    
  16110000   300.26829     -1458.895       1264.2831      2490.5163     -2.946052     
  16115000   302.45525     -1498.8542      1294.3474      2500.1782      8.8925772    
  16120000   299.36719     -1577.4235      1227.2558      2326.9025      3.2243777    
  16125000   299.46165     -1517.3127      1215.8381      2376.4403      6.5514911    
  16130000   302.59099     -1529.0079      1313.7415      2490.6323      2.0981456    
  16135000   302.58203     -1550.7206      1233.7593      2388.8574      6.4880395    
  16140000   297.28643     -1562.4273      1237.8918      2333.9277     -4.5292094    
  16145000   298.69086     -1515.4389      1199.7497      2355.3329      8.7676551    
  16150000   303.57858     -1504.8923      1231.185       2441.0229      14.989511    
  16155000   297.49813     -1518.0456      1232.1335      2374.4441      6.8738044    
  16160000   299.94056     -1525.3678      1251.3873      2408.217       19.326795    
  16165000   306.13543     -1528.7573      1321.222       2530.0594      5.492128     
  16170000   295.14416     -1500.1444      1238.4447      2377.6063     -9.9492208    
  16175000   305.81277     -1514.1711      1230.098       2450.6363     -2.7500124    
  16180000   301.39411     -1514.064       1293.5692      2474.701      -3.602714     
  16185000   299.11771     -1538.9113      1277.8167      2413.7446      3.0965195    
  16190000   311.29319     -1571.2832      1260.8623      2473.2967     -8.1726453    
  16195000   301.86558     -1546.0689      1229.2948      2382.6377      10.041956    
  16200000   297.67617     -1542.1189      1258.8382      2378.6676      22.203343    
  16205000   298.25245     -1526.4476      1239.9446      2380.5987      20.394149    
  16210000   303.00207     -1502.472       1236.4524      2443.5553      4.7015179    
  16215000   307.9009      -1502.4879      1288.2259      2539.1203      5.969081     
  16220000   305.68882     -1503.2999      1283.2547      2513.5557      7.4162426    
  16225000   305.30591     -1516.9953      1262.3272      2475.5087     -2.7496295    
  16230000   299.15866     -1514.3705      1261.8272      2422.6621     -8.1142105    
  16235000   301.15134     -1507.8764      1269.3265      2454.4748      13.673058    
  16240000   300.21262     -1507.4086      1232.6507      2409.8724      1.6009677    
  16245000   302.97574     -1452.5132      1239.9709      2496.797       0.57865423   
  16250000   301.60059     -1471.8187      1277.8312      2503.0547      14.738336    
  16255000   306.42567     -1454.9547      1273.4257      2558.6612     -5.1355675    
  16260000   298.31995     -1470.8434      1270.5995      2467.4613     -0.22102776   
  16265000   312.59296     -1453.3209      1297.8398      2639.8597     -4.6613373    
  16270000   296.86663     -1458.3321      1302.0559      2498.433       2.122551     
  16275000   299.73707     -1465.1055      1305.523       2520.7953     -7.4299464    
  16280000   305.77037     -1503.2591      1264.2506      2495.3217      0.68353728   
  16285000   303.262       -1537.966       1258.2774      2432.2106      15.951942    
  16290000   290.1095      -1510.0918      1239.4607      2323.6529     -2.4792699    
  16295000   298.76282     -1527.8177      1256.0089      2399.8568     -4.7419999    
  16300000   297.39441     -1502.6129      1195.7937      2352.6095     -4.1290561    
  16305000   294.69726     -1496.9307      1279.0719      2417.4508      2.2959983    
  16310000   306.24194     -1488.0114      1228.7167      2479.2525      21.006374    
  16315000   305.99654     -1491.737       1233.1329      2477.7486     -15.597472    
  16320000   303.43289     -1515.2227      1286.9763      2485.181      -2.5054487    
  16325000   294.63313     -1527.5331      1244.2033      2351.4064      2.9369101    
  16330000   292.43553     -1549.2917      1213.7404      2279.5331     -4.4010617    
  16335000   302.37307     -1493.4691      1261.5485      2472.0295      8.3834376    
  16340000   301.00382     -1494.2401      1294.1755      2491.641       14.340521    
  16345000   299.09811     -1510.9694      1237.8536      2401.5483      8.7923669    
  16350000   298.47923     -1503.7414      1267.3902      2432.7785      2.8095944    
  16355000   298.87733     -1563.2983      1256.2399      2365.6312     -6.0572078    
  16360000   300.7051      -1535.439       1247.8228      2401.4181      0.15717841   
  16365000   295.91286     -1528.9987      1318.7167      2435.8982      0.0031130136 
  16370000   299.31508     -1518.6201      1252.6172      2410.6013      20.684152    
  16375000   300.6293      -1492.0088      1318.3317      2514.6794      23.45559     
  16380000   299.68161     -1525.0857      1212.0626      2366.8589      9.3188434    
  16385000   301.36162     -1554.0812      1231.9357      2372.7598      10.919256    
  16390000   307.72018     -1536.1109      1276.2136      2491.8689      5.457829     
  16395000   303.25017     -1520.2524      1250.3583      2441.8993      23.558085    
  16400000   307.69155     -1496.4867      1293.6498      2548.6733      8.0007548    
  16405000   295.36629     -1492.9767      1267.4954      2415.8111      18.829417    
  16410000   300.3764      -1514.1747      1284.9443      2456.8646      3.1760208    
  16415000   303.27678     -1514.6357      1249.5113      2446.907       15.740109    
  16420000   300.95166     -1524.0626      1246.8959      2414.0724     -0.72503758   
  16425000   297.56826     -1474.7689      1260.7825      2446.9971      12.087031    
  16430000   292.95817     -1457.0789      1295.6964      2458.3754     -8.8727254    
  16435000   298.09548     -1446.9265      1302.9496      2521.7212     -3.3533036    
  16440000   307.64818     -1453.5313      1335.6838      2633.2749      13.43192     
  16445000   309.67661     -1422.4048      1333.6012      2680.4579     -7.8886649    
  16450000   302.099       -1439.9528      1252.0755      2513.6219      6.0272924    
  16455000   297.05389     -1446.1899      1270.1249      2480.3186      4.5140379    
  16460000   305.88457     -1437.9164      1265.0038      2562.4388     -2.1781453    
  16465000   303.0578      -1464.351       1257.637       2503.3592      2.8832913    
  16470000   303.45693     -1434.5102      1256.6171      2535.7493      6.6619183    
  16475000   287.20561     -1442.3826      1266.4399      2392.3734      14.69391     
  16480000   303.37078     -1403.4042      1206.1713      2515.6391     -5.5011069    
  16485000   296.9477      -1409.0235      1285.5725      2531.9831     -8.2191457    
  16490000   302.4624      -1403.3612      1260.6234      2562.011       8.4572005    
  16495000   293.66695     -1409.0868      1286.458       2503.4675      4.5067857    
  16500000   303.40397     -1389.579       1184.3007      2507.8905     -3.0281255    
  16505000   295.01139     -1402.1162      1264.2192      2500.2218     -2.999444     
  16510000   302.78592     -1431.0562      1299.3302      2575.9159     -9.9767685    
  16515000   293.05009     -1450.0563      1232.2145      2402.7382      22.197434    
  16520000   299.50546     -1459.2493      1249.1         2468.1574      4.00824      
  16525000   306.39373     -1447.9917      1272.6291      2564.5419      26.439923    
  16530000   304.14946     -1419.5141      1318.7796      2619.1007      14.017188    
  16535000   307.20363     -1433.5434      1240.5471      2554.1507      8.5862344    
  16540000   298.17795     -1430.4633      1246.0076      2481.9797      13.156758    
  16545000   301.06587     -1422.6084      1275.4845      2545.1365      1.3769186    
  16550000   299.93038     -1463.3319      1248.8674      2467.642       14.791995    
  16555000   301.44605     -1463.2378      1239.1564      2471.5788     -0.16174407   
  16560000   301.12024     -1420.8232      1285.4854      2557.4088      1.4626371    
  16565000   304.04976     -1450.7385      1299.3832      2567.5885      6.0991081    
  16570000   305.30202     -1451.0073      1207.3548      2486.4895      23.018891    
  16575000   299.79266     -1490.5265      1231.6175      2421.9659     -2.0325197    
  16580000   303.4332      -1483.1039      1269.4234      2499.7497      14.302794    
  16585000   294.43554     -1479.7329      1287.9469      2441.1832      2.0208159    
  16590000   297.74906     -1475.0884      1252.2912      2439.803       11.270042    
  16595000   301.683       -1447.5891      1283.9352      2534.1252      1.7654057    
  16600000   301.99592     -1488.9297      1246.1599      2457.8077      2.2586321    
  16605000   301.5269      -1463.337       1264.713       2497.7592      33.62659     
  16610000   301.71209     -1485.3559      1261.1565      2473.8399      8.5651184    
  16615000   296.31056     -1446.7628      1336.8992      2539.8728     -10.728217    
  16620000   303.93166     -1453.641       1255.3901      2519.6367      6.5699202    
  16625000   293.61882     -1429.1608      1254.7811      2451.2862     -11.691782    
  16630000   296.24005     -1463.0397      1293.1959      2479.2621      21.45303     
  16635000   304.50529     -1476.1287      1260.8837      2507.7723      22.15094     
  16640000   306.63826     -1470.8594      1270.9335      2542.1653     -4.112633     
  16645000   298.7137      -1444.6474      1264.8582      2491.4372      3.6724687    
  16650000   296.79384     -1466.5258      1243.4484      2430.9808      17.030883    
  16655000   294.17881     -1436.6237      1259.0761      2453.1258      28.905086    
  16660000   302.45847     -1453.0655      1253.9026      2505.5508      10.282677    
  16665000   297.58691     -1463.7886      1321.9839      2519.3454      8.7936598    
  16670000   301.67051     -1446.3939      1276.8132      2528.0868      6.2396526    
  16675000   298.67003     -1473.7445      1303.8981      2500.9895      23.833303    
  16680000   294.00091     -1497.6809      1183.105       2314.5066     -1.587878     
  16685000   295.7398      -1465.7173      1299.0091      2477.9243      13.127395    
  16690000   296.69366     -1487.1303      1181.8068      2347.8388     -1.4066348    
  16695000   301.30004     -1490.2594      1263.7744      2467.8695      5.8809812    
  16700000   298.39566     -1521.1246      1261.8019      2409.0597     -0.49372043   
  16705000   293.97927     -1504.836       1297.0914      2421.1445      1.6456307    
  16710000   294.58422     -1499.8697      1238.3301      2372.7593      7.8109947    
  16715000   293.16452     -1477.8341      1272.0174      2415.7865     -5.0122031    
  16720000   301.54162     -1457.0929      1251.898       2491.32        29.469237    
  16725000   300.6071      -1449.6661      1315.0519      2553.5438      4.6826428    
  16730000   296.22897     -1449.1102      1296.2634      2496.16        14.517922    
  16735000   307.23861     -1469.8901      1267.46        2545.0297      21.210295    
  16740000   301.07663     -1482.3415      1263.9383      2473.9535      21.809237    
  16745000   295.72716     -1486.5646      1268.293       2426.2479      5.5298839    
  16750000   299.27756     -1493.9335      1254.5262      2436.8613     -10.494666    
  16755000   302.89901     -1473.4722      1268.9295      2504.1106      8.8130843    
  16760000   300.98486     -1455.9348      1235.5569      2471.1581      33.526001    
  16765000   305.11291     -1449.8649      1293.8803      2572.4663     -6.1281869    
  16770000   304.08287     -1487.438       1267.5345      2499.3363     -3.1305533    
  16775000   304.98625     -1508.1837      1271.2398      2490.3743      1.4021572    
  16780000   302.86414     -1487.1017      1241.8999      2463.1396      2.9067024    
  16785000   304.72105     -1466.9405      1272.7261      2530.7323      1.4308162    
  16790000   296.54191     -1494.6528      1233.1882      2390.3407      15.761222    
  16795000   303.40514     -1501.2073      1272.8752      2484.8472     -9.3487526    
  16800000   314.27047     -1493.4175      1231.5026      2548.4268      1.1090193    
  16805000   296.06197     -1512.3449      1227.5845      2362.7531     -3.8857004    
  16810000   293.43225     -1441.9729      1321.0434      2503.0679      0.51733502   
  16815000   294.5075      -1440.71        1281.8348      2474.7376      14.335604    
  16820000   299.51148     -1460.7917      1209.3802      2426.949      -2.2740839    
  16825000   297.85567     -1461.8437      1261.1162      2462.8261      8.3081522    
  16830000   301.62683     -1467.1704      1247.697       2477.8035     -5.210778     
  16835000   301.65826     -1447.7864      1287.5174      2537.2889      12.522212    
  16840000   298.23135     -1476.4341      1265.2597      2455.7385      9.0445976    
  16845000   301.11348     -1464.0865      1244.2115      2472.8113      31.301247    
  16850000   298.17533     -1516.1214      1258.0451      2408.3358      4.0416538    
  16855000   301.80658     -1482.2996      1224.0016      2440.5863     -1.0952779    
  16860000   300.76235     -1472.1665      1270.4699      2487.8497      2.5663255    
  16865000   300.35112     -1467.3799      1247.5515      2466.0405     -4.174216     
  16870000   309.27195     -1502.5137      1301.5082      2564.6373     -8.9107252    
  16875000   299.74259     -1494.7389      1230.2929      2415.9812     -9.2811985    
  16880000   295.97775     -1471.2848      1250.6053      2426.0809     -7.7064248    
  16885000   303.39755     -1456.028       1256.3782      2513.4616      3.0690109    
  16890000   306.48109     -1442.8279      1215.4316      2513.2893      10.316989    
  16895000   306.77294     -1477.8771      1280.7351      2546.1536      21.077204    
  16900000   304.72072     -1477.9053      1276.7407      2523.7791      6.964173     
  16905000   295.75906     -1499.5796      1267.2936      2412.5187      14.643826    
  16910000   295.91272     -1517.7226      1264.7743      2393.2304     -2.7395664    
  16915000   304.17648     -1501.3839      1219.5907      2438.2837      10.476994    
  16920000   300.23584     -1489.803       1258.9956      2454.0307      3.6583133    
  16925000   297.23671     -1514.0046      1223.0858      2367.0997      1.3489458    
  16930000   299.56007     -1468.1427      1304.0662      2514.7185     -2.0315501    
  16935000   308.09199     -1494.2455      1267.3849      2528.2306     -7.47867      
  16940000   302.2951      -1485.606       1208.0245      2425.6713      6.7193709    
  16945000   296.68523     -1457.7207      1283.6813      2479.0477      3.5787276    
  16950000   307.91437     -1447.2971      1255.8523      2562.0579     -16.546154    
  16955000   294.93256     -1498.4246      1251.0272      2390.0164      14.18569     
  16960000   303.06306     -1472.0025      1274.4775      2512.5953      12.46228     
  16965000   301.58477     -1431.9275      1264.6588      2529.632       7.1380225    
  16970000   298.8593      -1454.1068      1286.368       2504.7897      7.8715449    
  16975000   299.41705     -1406.401       1288.4876      2559.6027     -16.289024    
  16980000   304.18467     -1412.311       1297.4395      2605.2787      22.539017    
  16985000   300.53501     -1395.2774      1192.1034      2484.3393      15.725571    
  16990000   301.98557     -1404.0024      1326.0892      2622.5716     -9.4641555    
  16995000   304.03863     -1398.1716      1231.2417      2551.9143     -4.2800961    
  17000000   304.88154     -1384.4763      1283.0449      2624.9505     -1.3055362    
  17005000   315.75141     -1391.5316      1295.6829      2727.7363      2.0648794    
  17010000   301.05542     -1391.7592      1239.9602      2540.3681      6.8092582    
  17015000   299.22631     -1368.9404      1237.8646      2544.7346      0.43352487   
  17020000   294.81885     -1407.038       1275.7869      2505.1459      13.941215    
  17025000   292.80574     -1405.4472      1195.804       2408.7517     -0.23167441   
  17030000   296.74652     -1402.0993      1308.7418      2560.2776      9.9301174    
  17035000   297.7378      -1429.8096      1226.1592      2458.8491     -4.3904879    
  17040000   300.59701     -1427.9637      1224.6065      2484.7105      2.7333939    
  17045000   305.44626     -1437.3037      1245.2073      2539.3354      16.448469    
  17050000   297.41355     -1437.1733      1292.9105      2515.3371      15.540393    
  17055000   303.02443     -1442.5309      1269.3511      2536.5951      19.877579    
  17060000   296.25146     -1461.4526      1244.7468      2432.5021      10.508031    
  17065000   299.67967     -1399.6294      1305.6743      2585.9095     -1.4839096    
  17070000   302.62227     -1417.7336      1217.928       2506.3728      9.2108298    
  17075000   296.05062     -1439.4646      1296.0493      2503.9967      18.810817    
  17080000   302.27696     -1490.1135      1346.8822      2559.8593      9.0787915    
  17085000   302.97733     -1439.6693      1268.0583      2537.7426      7.3733836    
  17090000   295.46954     -1464.9194      1252.4793      2429.7757     -0.69716879   
  17095000   303.04871     -1408.5369      1273.5293      2574.9843     -3.316405     
  17100000   303.07105     -1441.0033      1282.0106      2551.1991      26.130223    
  17105000   295.34084     -1440.0035      1289.2158      2490.2771      14.743787    
  17110000   296.13962     -1441.0787      1257.8088      2464.9379      2.1091985    
  17115000   299.89298     -1477.6845      1318.0751      2522.1627     -3.2773206    
  17120000   301.5712      -1458.1482      1247.9639      2486.5951      7.4041318    
  17125000   291.32549     -1469.0038      1285.0983      2421.2524      3.5163381    
  17130000   304.23235     -1482.5573      1284.5474      2522.5667     -2.071111     
  17135000   306.95452     -1454.691       1272.2979      2562.5262      9.852253     
  17140000   293.05861     -1452.4574      1268.9853      2437.1841     -0.7824099    
  17145000   301.21847     -1405.548       1244.3807      2532.4578      10.509384    
  17150000   300.96105     -1417.3276      1259.5361      2533.5317      5.7968531    
  17155000   303.1276      -1425.4125      1288.4341      2573.719       7.3076622    
  17160000   297.06531     -1446.8364      1263.6364      2473.2858      4.6997001    
  17165000   308.50649     -1471.5329      1242.7257      2529.9905      9.6827816    
  17170000   300.47523     -1458.6911      1238.7143      2467.002       21.189788    
  17175000   297.14063     -1446.6759      1214.4216      2424.9051      6.8076502    
  17180000   299.09163     -1425.4764      1249.0942      2498.2237      10.381498    
  17185000   304.27483     -1433.4367      1266.5094      2554.0292      7.3490642    
  17190000   311.31826     -1431.8963      1257.977       2610.0224     -8.3815824    
  17195000   305.75042     -1438.0261      1269.2928      2565.4185      36.695443    
  17200000   295.052       -1474.7161      1241.3878      2405.1537      9.8511277    
  17205000   305.71911     -1428.8403      1287.2689      2592.3004      5.3444264    
  17210000   306.92188     -1436.5826      1260.1161      2568.1609     -11.443096    
  17215000   303.60788     -1460.5844      1296.2496      2550.6574      16.312372    
  17220000   293.50765     -1462.0042      1277.4546      2440.122       5.130981     
  17225000   299.68511     -1506.1813      1268.5244      2442.2562      3.8133266    
  17230000   298.37677     -1518.1663      1261.622       2411.6691      5.3972559    
  17235000   295.24804     -1501.0404      1266.8507      2406.0453      13.178289    
  17240000   298.06881     -1528.7033      1297.9614      2434.7176      1.8485941    
  17245000   293.57056     -1505.8466      1264.0554      2383.443       3.4110037    
  17250000   295.27139     -1514.8544      1253.7146      2379.304       23.707524    
  17255000   298.21268     -1519.5278      1269.5751      2416.7934      19.796865    
  17260000   299.2673      -1475.3516      1295.8108      2496.6362      11.078856    
  17265000   302.18595     -1492.907       1300.2303      2509.6         4.7887009    
  17270000   299.73647     -1448.6221      1263.4285      2495.1788      0.2609351    
  17275000   309.99135     -1447.0973      1301.1971      2626.1758     -8.1229385    
  17280000   304.40343     -1405.2454      1258.6006      2575.4617     -7.5570932    
  17285000   303.35677     -1415.7594      1212.8812      2509.8685     -15.204105    
  17290000   301.4098      -1418.4969      1292.1808      2569.02       -2.0909097    
  17295000   301.22067     -1428.4539      1276.4774      2541.6683      17.890313    
  17300000   303.65993     -1453.5524      1228.7753      2490.6806     -9.7686904    
  17305000   295.93771     -1455.9692      1273.5651      2463.9982     -6.0216444    
  17310000   297.16508     -1412.8173      1230.9057      2475.4664      7.5411078    
  17315000   296.30903     -1431.9876      1271.5126      2489.2478      11.957874    
  17320000   306.28575     -1430.0842      1248.0692      2556.9239      11.14116     
  17325000   299.41        -1445.5525      1242.7245      2474.6251     -2.2272747    
  17330000   304.30624     -1480.3723      1208.0912      2448.9562     -1.938352     
  17335000   299.61775     -1478.8494      1213.8171      2414.2785     -4.4026104    
  17340000   311.99601     -1471.7932      1251.1319      2569.3412      5.9563638    
  17345000   298.31725     -1469.7388      1253.5501      2451.4925      18.229272    
  17350000   300.58933     -1480.6464      1270.4312      2477.7839     -5.4751509    
  17355000   312.73077     -1484.5956      1217.606       2529.5834      5.4622247    
  17360000   299.77226     -1455.3234      1265.8258      2491.1949      1.8004578    
  17365000   297.88002     -1452.3709      1252.1975      2463.5979     -9.5272144    
  17370000   298.62339     -1507.0672      1288.9596      2452.3113      9.6345244    
  17375000   298.29337     -1504.0082      1289.2514      2452.7108      12.747338    
  17380000   310.25354     -1551.3559      1267.1371      2490.2018     -2.9253475    
  17385000   297.60254     -1547.237       1266.2454      2380.2983      2.2322383    
  17390000   295.60143     -1527.4134      1234.0144      2349.9962      8.1942528    
  17395000   300.22165     -1524.6005      1278.7955      2438.9062     -16.617337    
  17400000   289.63402     -1524.5841      1231.0647      2296.5126      7.3561185    
  17405000   295.92475     -1516.8879      1251.5731      2380.9716      4.8940934    
  17410000   303.88052     -1519.1365      1267.4815      2465.7753      5.8076428    
  17415000   297.54452     -1505.7003      1237.0976      2392.1684      11.609555    
  17420000   295.33756     -1522.7516      1277.6386      2395.9225     -0.49640242   
  17425000   299.24269     -1482.6964      1292.8191      2486.0796      23.743737    
  17430000   294.68395     -1452.0255      1232.9018      2416.0669      4.9511535    
  17435000   299.83014     -1481.7727      1241.9073      2441.3447     -12.254559    
  17440000   298.00489     -1484.2466      1239.7229      2420.3643      0.40685988   
  17445000   296.44816     -1488.0582      1213.3259      2376.2347      1.2066737    
  17450000   302.21757     -1488.1934      1270.5847      2484.9508      4.2808931    
  17455000   302.14191     -1508.3122      1285.7517      2479.3224      23.67308     
  17460000   299.56567     -1508.3607      1279.2556      2449.74       -2.7980628    
  17465000   299.93157     -1525.8743      1231.0913      2387.3341     -8.6951732    
  17470000   306.85331     -1516.2956      1264.4722      2492.1908      1.5803122    
  17475000   300.33569     -1513.5385      1279.278       2451.4705      7.7461492    
  17480000   296.71209     -1481.1967      1271.5103      2443.6407      4.8278604    
  17485000   298.09453     -1464.9395      1283.3607      2484.1106      0.70670432   
  17490000   293.50922     -1504.5855      1221.1759      2341.2761      2.1957057    
  17495000   298.36944     -1478.8156      1235.6141      2424.9463     -2.8620938    
  17500000   295.56088     -1508.2329      1280.1421      2414.9417      1.5599225    
  17505000   299.87598     -1516.6077      1299.5859      2464.5981      31.049104    
  17510000   306.3333      -1502.643       1232.7935      2469.5146      3.9154294    
  17515000   301.18154     -1534.8461      1267.5946      2426.0434      13.166757    
  17520000   295.15391     -1556.4612      1275.0803      2358.0123      1.1966325    
  17525000   297.63272     -1535.2906      1318.5517      2444.8209     -5.4772182    
  17530000   301.80477     -1529.9138      1249.5143      2418.4686     -12.752441    
  17535000   299.39271     -1520.3107      1249.4161      2406.4039      4.5735521    
  17540000   298.72053     -1508.2369      1248.2094      2411.2599     -12.661665    
  17545000   300.26037     -1515.4821      1221.2781      2390.8533      10.262346    
  17550000   302.38169     -1487.4608      1264.6452      2481.2115      3.4504591    
  17555000   299.91632     -1454.4364      1234.827       2462.3714      9.8862484    
  17560000   302.18519     -1460.2191      1210.7243      2452.7752      1.2157376    
  17565000   285.76564     -1458.5367      1308.9523      2405.8549     -5.7694441    
  17570000   303.7969      -1476.6835      1232.9064      2472.9055     -1.1577824    
  17575000   303.45619     -1470.623       1296.5178      2539.5306      15.209278    
  17580000   296.22442     -1463.785       1273.6649      2458.8461     -7.0911606    
  17585000   304.84006     -1443.1591      1232.8313      2515.6832      6.9117119    
  17590000   296.42742     -1428.0563      1262.8793      2485.6044      8.9888057    
  17595000   291.94388     -1449.5188      1283.4         2444.569       17.541501    
  17600000   303.25807     -1495.6771      1279.8531      2496.0401     -2.3936604    
  17605000   299.74934     -1443.1448      1259.0349      2496.3777     -12.114861    
  17610000   300.51048     -1446.3499      1273.9432      2514.8872      3.414783     
  17615000   298.10782     -1449.2715      1318.8021      2535.339      -9.7649077    
  17620000   305.33709     -1449.2492      1283.1627      2564.3692      0.13620868   
  17625000   304.16279     -1415.5781      1328.0084      2632.3848     -11.821841    
  17630000   297.93141     -1429.0101      1190.6466      2425.8674      9.1630227    
  17635000   301.20241     -1405.3248      1283.2038      2571.3605      1.8815435    
  17640000   301.53194     -1429.4942      1293.7074      2560.6415      14.187172    
  17645000   299.43156     -1419.1662      1307.1811      2565.6607     -11.305836    
  17650000   294.09168     -1467.2462      1288.3026      2450.9507      6.1939808    
  17655000   305.60203     -1443.8238      1236.5044      2525.5054      22.721544    
  17660000   294.32942     -1452.5768      1278.5265      2457.97        8.39138      
  17665000   295.10893     -1453.4466      1285.2859      2470.8303      2.367032     
  17670000   295.90104     -1395.47        1238.6135      2489.2178      8.0035802    
  17675000   296.02551     -1407.6342      1281.5945      2521.1477      5.5384702    
  17680000   299.65333     -1360.5735      1258.1832      2577.2386      0.66934116   
  17685000   296.43598     -1365.04        1259.8481      2545.6661      4.9697822    
  17690000   300.0608      -1372.4743      1247.7219      2558.5204     -0.70042902   
  17695000   299.67296     -1380.9064      1268.9548      2567.8529      15.100095    
  17700000   305.69368     -1422.3725      1295.7801      2607.052      -12.149294    
  17705000   303.89991     -1400.0073      1262.0937      2579.6901      14.022979    
  17710000   301.13475     -1434.8274      1267.2796      2525.3287     -12.932351    
  17715000   300.58409     -1435.1684      1241.5999      2494.3838      5.1670302    
  17720000   292.78143     -1427.0226      1220.7953      2411.9502      11.255572    
  17725000   286.55818     -1443.9626      1244.9077      2363.4716      12.602228    
  17730000   295.12085     -1478.3136      1279.3875      2440.1715      9.9122472    
  17735000   293.01417     -1445.6839      1269.8232      2444.398      -10.250331    
  17740000   297.47497     -1484.7388      1208.0501      2383.4604      7.3228184    
  17745000   304.01142     -1507.7781      1246.4461      2457.2689      24.243765    
  17750000   301.833       -1484.5326      1238.6284      2453.2163      6.9269129    
  17755000   299.56995     -1485.8866      1257.71        2450.7067      21.362813    
  17760000   300.11286     -1524.0377      1271.748       2431.4486      23.302374    
  17765000   301.11634     -1469.4822      1246.4909      2469.7204      9.4544153    
  17770000   295.59648     -1475.6369      1263.5039      2431.2179      22.192307    
  17775000   301.82519     -1465.8893      1239.5638      2472.7251     -10.66761     
  17780000   299.29041     -1468.3911      1246.6838      2454.6763      4.4956774    
  17785000   302.91039     -1465.1852      1260.4671      2504.0369      9.8459165    
  17790000   296.67447     -1498.2587      1280.6579      2435.39       -11.737524    
  17795000   301.39846     -1486.6178      1213.6262      2422.2431      23.72201     
  17800000   303.13237     -1489.8625      1248.934       2469.8116      22.651403    
  17805000   302.74349     -1475.489       1265.9794      2497.7529      4.6461465    
  17810000   305.84879     -1500.6991      1247.3072      2481.6395      11.193647    
  17815000   308.76658     -1488.8334      1273.9351      2546.2254      19.590127    
  17820000   300.76053     -1485.3092      1304.881       2509.1018      5.752914     
  17825000   302.52554     -1466.149       1240.6798      2479.8443      25.329845    
  17830000   302.24673     -1456.159       1190.3796      2437.0408     -11.198799    
  17835000   297.8014      -1448.5915      1273.5554      2488.0322     -12.968005    
  17840000   303.40168     -1472.5232      1267.5509      2508.176       1.212098     
  17845000   300.48376     -1443.5131      1247.4968      2491.0387      13.803535    
  17850000   299.22938     -1468.0159      1258.4504      2466.2723      9.5323592    
  17855000   297.11551     -1472.9208      1224.4737      2408.4876      10.463577    
  17860000   298.59947     -1463.8938      1275.7687      2482.0798      25.16885     
  17865000   294.80768     -1459.7508      1242.8195      2419.3659      6.7898181    
  17870000   297.49981     -1456.0657      1240.0191      2444.3247      1.1123425    
  17875000   302.26064     -1421.6662      1267.6146      2548.893       27.11522     
  17880000   295.4258      -1419.5437      1277.9586      2500.2395      4.5825524    
  17885000   297.00444     -1408.6335      1279.999       2527.307      -2.6236293    
  17890000   295.74234     -1434.9143      1273.8654      2483.6064     -5.544114     
  17895000   294.93281     -1400.5601      1287.2279      2524.0839      4.1235825    
  17900000   296.85626     -1396.0448      1260.7167      2519.2882      6.5149496    
  17905000   298.50321     -1418.4348      1249.8512      2500.7604      3.7625837    
  17910000   300.25382     -1413.6882      1246.4782      2517.7888      11.938079    
  17915000   299.51203     -1411.7711      1243.0216      2509.616      -6.429741     
  17920000   305.75683     -1414.5274      1240.6796      2560.3613      6.1945214    
  17925000   300.88039     -1441.4068      1268.0661      2517.2612      5.8402056    
  17930000   297.00849     -1460.5627      1260.0632      2455.4782      17.203378    
  17935000   299.11887     -1430.5121      1275.0491      2519.3866      4.3284929    
  17940000   287.39279     -1439.6673      1237.3988      2367.7215      0.070445527  
  17945000   300.75683     -1459.7517      1258.1985      2487.9437      9.5384448    
  17950000   311.27947     -1421.6934      1251.9937      2613.8952      24.969897    
  17955000   303.38437     -1429.0558      1251.8524      2535.7901     -1.7617523    
  17960000   297.74046     -1427.3826      1253.5368      2488.6775     -7.803758     
  17965000   301.91148     -1432.1601      1246.9798      2514.6421     -1.6524068    
  17970000   298.43969     -1450.7185      1251.5687      2469.6263     -6.5459354    
  17975000   306.81203     -1444.9372      1268.4906      2567.1986      4.6718577    
  17980000   290.43774     -1440.5583      1295.7209      2452.3818     -3.3810792    
  17985000   297.71562     -1474.0159      1267.643       2455.9282      23.116702    
  17990000   299.70162     -1463.1915      1267.0467      2483.9161      10.557648    
  17995000   304.05858     -1450.1102      1256.4035      2525.316      -3.5095413    
  18000000   292.04619     -1425.0329      1264.6049      2451.1746      2.0268137    
  18005000   302.59848     -1433.1157      1235.2562      2508.1063      21.270838    
  18010000   304.1652      -1446.1702      1221.2623      2495.0681      10.692853    
  18015000   300.2674      -1482.7355      1254.2001      2456.5848      21.964439    
  18020000   297.67492     -1499.83        1227.508       2389.6151      10.878466    
  18025000   300.0591      -1482.7741      1292.1504      2492.6339     -11.641855    
  18030000   304.34196     -1502.1226      1229.6201      2449.0541      1.122761     
  18035000   302.45439     -1517.3579      1258.5789      2445.8982      15.382275    
  18040000   305.61271     -1515.754       1279.2327      2496.399      -14.639113    
  18045000   292.3106      -1496.1444      1239.9102      2357.733      -5.6810263    
  18050000   298.07576     -1503.8135      1288.8882      2450.5964      17.531545    
  18055000   297.67781     -1490.9872      1299.5293      2470.5052      24.31148     
  18060000   311.75327     -1501.687       1266.2666      2552.4115     -3.0495009    
  18065000   301.4061      -1470.3656      1265.1136      2490.051       12.82244     
  18070000   298.59084     -1487.7008      1256.3424      2438.7693     -7.6410386    
  18075000   294.58541     -1493.7756      1267.0355      2407.5694      3.5725947    
  18080000   295.86354     -1452.4353      1262.9772      2456.2808     -6.2788057    
  18085000   300.89644     -1495.0016      1306.1222      2501.8661     -3.4651751    
  18090000   300.19625     -1465.8864      1232.3962      2450.9938      2.7723416    
  18095000   300.28287     -1509.0419      1245.8843      2422.101       15.028559    
  18100000   295.39476     -1485.5929      1218.4075      2374.3616      18.735732    
  18105000   293.1311      -1469.7252      1281.4526      2433.0318     -4.233922     
  18110000   295.88023     -1483.0805      1269.266       2432.0738     -21.19489     
  18115000   301.80061     -1444.7524      1259.4124      2513.4909      14.966161    
  18120000   298.30426     -1460.0807      1267.661       2475.1453      14.656252    
  18125000   296.51264     -1483.9308      1250.7727      2418.3854     -8.3343322    
  18130000   306.1083      -1484.2305      1249.5177      2502.6393      6.154039     
  18135000   301.28424     -1480.0272      1299.6327      2513.8188      16.014855    
  18140000   304.2343      -1477.6202      1261.925       2504.8987      19.049912    
  18145000   304.98944     -1504.1296      1250.6059      2473.823      -0.44807295   
  18150000   304.21064     -1495.0594      1243.326       2468.649      -6.5576759    
  18155000   300.89703     -1502.3565      1273.1384      2461.5326      18.13542     
  18160000   295.99908     -1488.8935      1245.4768      2403.5344     -9.0024203    
  18165000   311.04784     -1486.3727      1272.2202      2567.3711     -0.048717505  
  18170000   305.72076     -1516.0817      1237.611       2455.4158      3.9289664    
  18175000   302.20863     -1505.7924      1251.7608      2448.4479      9.9782147    
  18180000   303.84957     -1506.173       1272.7632      2483.7438     -1.0664837    
  18185000   305.89254     -1537.6285      1261.5351      2459.3293      8.939766     
  18190000   308.80991     -1510.1751      1251.6065      2502.9424     -6.5601638    
  18195000   305.47122     -1553.0536      1209.0963      2387.6978     -6.2453406    
  18200000   303.22916     -1534.4516      1257.6715      2434.8255      21.377443    
  18205000   300.03216     -1501.5682      1276.2055      2457.654       6.0960121    
  18210000   303.61396     -1502.1532      1239.4398      2452.3332      9.4411498    
  18215000   301.23014     -1486.4581      1291.3288      2498.6002      4.7941836    
  18220000   295.02055     -1489.4553      1294.2357      2442.981       13.925127    
  18225000   304.52245     -1496.9895      1283.0889      2509.2701     -1.7338936    
  18230000   303.89945     -1492.3545      1253.6607      2478.9058      8.7911381    
  18235000   301.04609     -1530.0274      1279.3316      2441.3878      10.019175    
  18240000   302.85941     -1508.4404      1292.8729      2492.7317      4.1460443    
  18245000   302.73166     -1555.3859      1297.9892      2449.76       -4.2121843    
  18250000   301.12564     -1524.3642      1273.9435      2442.3742      3.7880187    
  18255000   300.62505     -1515.2001      1274.6883      2447.8067      17.154266    
  18260000   295.95533     -1544.2635      1244.5182      2346.8146      16.133984    
  18265000   302.56317     -1512.4168      1242.5913      2435.8246      11.437274    
  18270000   300.39252     -1535.5425      1272.459       2423.1556      14.68767     
  18275000   303.05262     -1561.0005      1168.4221      2317.4485      7.7446175    
  18280000   302.58485     -1566.2088      1280.0293      2419.6645     -0.033646038  
  18285000   299.0081      -1546.188       1211.0123      2338.6833      2.6114152    
  18290000   301.8598      -1525.2159      1311.4345      2485.5787      14.462769    
  18295000   300.41957     -1498.4927      1277.8148      2465.8032      8.5465168    
  18300000   300.94537     -1525.3208      1273.6342      2439.4964     -1.1382886    
  18305000   303.62673     -1514.4094      1256.5429      2457.2943      5.0664596    
  18310000   305.16628     -1529.7623      1243.7866      2442.9525      16.724535    
  18315000   303.44022     -1545.2852      1221.5647      2389.7724      18.388344    
  18320000   302.4275      -1547.0296      1254.1691      2411.5763      7.2777734    
  18325000   291.68909     -1538.4037      1255.5971      2325.6027      6.9061565    
  18330000   307.39816     -1546.9222      1260.3879      2462.3523      0.58924964   
  18335000   302.33795     -1545.5863      1266.5566      2424.6063     -1.3302475    
  18340000   302.35158     -1542.8629      1301.6132      2462.5081     -3.9337404    
  18345000   297.73617     -1502.2615      1260.8997      2421.1231     -6.4397936    
  18350000   301.28331     -1493.6095      1262.4225      2463.0179      4.7385009    
  18355000   300.12185     -1508.3631      1238.8705      2414.326       3.5514604    
  18360000   302.23918     -1473.7748      1267.2935      2496.2714      11.698765    
  18365000   293.34011     -1462.152       1304.9404      2465.9619      8.4995359    
  18370000   308.04053     -1473.4236      1207.2452      2488.4526      8.4825145    
  18375000   300.04766     -1459.3159      1246.9925      2470.8319      15.478146    
  18380000   295.37093     -1460.4801      1276.1764      2457.0302      10.97024     
  18385000   303.1669      -1450.027       1218.346       2479.3679     -2.0428399    
  18390000   300.00701     -1429.8256      1260.2708      2513.2369      12.778219    
  18395000   298.97943     -1416.4314      1270.9609      2528.1322     -13.552166    
  18400000   295.76346     -1461.9585      1250.4417      2433.3273      13.749094    
  18405000   307.64426     -1443.2757      1263.0163      2570.8279      1.7161713    
  18410000   292.75455     -1464.1694      1267.3518      2421.1196      2.9376277    
  18415000   304.94807     -1475.2302      1278.5155      2530.2621      4.1794611    
  18420000   302.55295     -1429.6639      1242.8972      2518.7919     -0.074305637  
  18425000   299.5871      -1463.7206      1271.7955      2487.1116     -5.6130476    
  18430000   298.88853     -1466.1786      1278.8537      2485.4648      14.376964    
  18435000   300.02292     -1446.7737      1264.5598      2500.7202      6.9524524    
  18440000   294.72243     -1451.1935      1267.7986      2452.1398      16.06574     
  18445000   305.56347     -1428.4735      1266.8045      2570.8111     -8.1958916    
  18450000   301.2448      -1434.5576      1250.8688      2510.1719      2.0396272    
  18455000   298.49536     -1433.8432      1254.0863      2489.517      -2.2699433    
  18460000   309.25606     -1438.9478      1224.5431      2551.096       2.418796     
  18465000   293.57939     -1442.5292      1236.1537      2418.9377      1.4549533    
  18470000   300.61254     -1460.8554      1248.8281      2476.1794     -3.6535338    
  18475000   306.88003     -1480.7472      1232.306       2495.812       6.5313043    
  18480000   302.87723     -1463.996       1267.9803      2512.4427      5.3361085    
  18485000   297.40565     -1422.4684      1271.5368      2508.5976      6.1715199    
  18490000   299.99859     -1407.4699      1258.5524      2533.799      -6.0963504    
  18495000   303.87576     -1420.8783      1258.451       2554.9604      14.796994    
  18500000   306.08558     -1446.8114      1303.7379      2594.0755     -2.3889112    
  18505000   306.26092     -1512.9353      1290.1267      2515.9083     -6.6943762    
  18510000   295.40096     -1499.3548      1260.3893      2402.6369      21.742278    
  18515000   297.41662     -1476.6827      1267.9223      2450.867       1.7672978    
  18520000   305.02271     -1461.1341      1218.7222      2485.2324      10.740877    
  18525000   303.40605     -1502.171       1270.0986      2481.1151     -1.0755913    
  18530000   290.48585     -1480.8834      1293.5226      2410.2887     -1.3685648    
  18535000   309.99333     -1493.7968      1258.3937      2536.6906     -2.5993612    
  18540000   303.65116     -1482.9362      1288.9384      2521.3815     -5.6426773    
  18545000   301.94265     -1511.01        1218.1825      2407.2736     -3.7072348    
  18550000   303.65659     -1509.1229      1279.6499      2485.9549     -2.7233451    
  18555000   302.72286     -1522.1864      1215.1243      2400.0159      1.2098894    
  18560000   298.05387     -1504.3173      1244.494       2405.5027      12.353764    
  18565000   301.09567     -1531.0848      1265.879       2427.3213      4.3677851    
  18570000   300.68459     -1511.6138      1263.0985      2440.3356      13.985332    
  18575000   302.07426     -1523.1558      1235.5547      2413.6769     -2.6753124    
  18580000   295.49414     -1480.5181      1291.588       2453.5056     -3.4201219    
  18585000   290.74434     -1494.7889      1271.0896      2376.2617      0.69403449   
  18590000   307.51354     -1489.5186      1273.7322      2534.1319      11.556935    
  18595000   298.71882     -1529.528       1269.5309      2411.2751      0.67279729   
  18600000   294.71719     -1549.3674      1271.0886      2357.2091     -2.4759787    
  18605000   292.4678      -1530.8803      1253.7219      2338.2145      11.158249    
  18610000   302.46877     -1504.653       1268.5142      2468.667       18.674465    
  18615000   304.95271     -1492.2049      1305.4278      2540.2412      10.010294    
  18620000   297.81177     -1481.817       1259.3192      2440.6631      8.7411143    
  18625000   298.06624     -1499.021       1241.9205      2408.336       10.291248    
  18630000   303.48373     -1523.5303      1253.2159      2443.5677      2.6172423    
  18635000   297.28562     -1475.0549      1257.2329      2440.6339     -1.6031002    
  18640000   307.99128     -1506.8404      1261.0883      2508.4385      6.6173687    
  18645000   292.53138     -1545.931       1265.7039      2335.7144      8.444129     
  18650000   300.04303     -1546.6153      1252.2697      2388.7682      1.0227871    
  18655000   300.69377     -1550.7687      1261.4961      2399.6604      3.0585842    
  18660000   304.91136     -1541.0581      1253.0409      2438.6313     -4.2636138    
  18665000   299.32993     -1545.2956      1258.0683      2389.5097     -13.486728    
  18670000   307.87621     -1546.9282      1279.6964      2485.9297      16.326119    
  18675000   296.74654     -1532.7236      1270.9187      2391.8303      20.562746    
  18680000   299.56204     -1529.1685      1283.1921      2432.8362     -2.5834168    
  18685000   297.31776     -1493.7714      1248.1083      2413.0803      15.543279    
  18690000   304.63217     -1489.8697      1288.5952      2522.8775      6.0790661    
  18695000   301.36559     -1470.6511      1228.4156      2452.7052     -2.004473     
  18700000   308.97646     -1453.5218      1307.9018      2617.3804      18.96687     
  18705000   300.59152     -1428.0527      1234.7617      2494.7277      26.321908    
  18710000   298.78195     -1423.7076      1241.2654      2489.3945      18.263115    
  18715000   298.3246      -1434.1215      1208.9881      2442.6134     -4.1922862    
  18720000   307.21747     -1403.6232      1244.7195      2588.3671      3.8971372    
  18725000   300.93193     -1388.855       1246.9722      2549.1799      14.888186    
  18730000   297.04787     -1361.0548      1258.0796      2553.3546     -1.9653884    
  18735000   300.89269     -1361.2504      1259.7135      2589.1749      14.644107    
  18740000   296.98197     -1407.8856      1276.5057      2524.3606      3.7811576    
  18745000   303.80003     -1403.7509      1257.2866      2570.2462      6.8239016    
  18750000   302.20759     -1396.9026      1202.1385      2507.7062      6.85972      
  18755000   307.19811     -1359.4724      1240.2847      2627.9099      5.1397944    
  18760000   295.58415     -1383.4132      1247.2297      2507.0572      16.068529    
  18765000   302.70739     -1393.3807      1209.8823      2523.4414      0.57482589   
  18770000   294.25861     -1409.8772      1275.7524      2497.2623      7.0637515    
  18775000   300.35956     -1405.4275      1232.3838      2512.9007      15.69894     
  18780000   300.99612     -1462.3337      1204.2592      2433.5623      14.967299    
  18785000   300.09237     -1436.9216      1305.5981      2552.2315      5.6663612    
  18790000   292.52549     -1459.0964      1247.7891      2404.5815     -4.1013706    
  18795000   302.87255     -1438.9608      1210.4323      2479.8881      15.114286    
  18800000   300.96138     -1422.3583      1234.3663      2503.3341      11.006943    
  18805000   295.67153     -1426.0227      1246.3291      2464.3283      15.024972    
  18810000   301.77458     -1428.1657      1242.432       2512.8643      7.3439812    
  18815000   295.10062     -1424.0467      1243.54        2458.41        22.106445    
  18820000   295.35715     -1471.9829      1246.6954      2415.9233      10.049962    
  18825000   296.77572     -1456.9801      1294.5507      2491.4668     -4.4676886    
  18830000   295.45134     -1458.9768      1207.7652      2390.8414      21.025999    
  18835000   308.18609     -1442.7654      1323.0635      2636.2307      11.023927    
  18840000   304.8764      -1485.26        1240.7948      2481.8708      19.96891     
  18845000   300.94368     -1494.9964      1258.705       2454.8765      9.9413617    
  18850000   303.54589     -1493.7836      1236.2779      2456.9323      18.621538    
  18855000   300.52768     -1503.557       1246.4532      2430.344       6.8362944    
  18860000   303.37858     -1491.6908      1232.5488      2453.7998     -7.5583695    
  18865000   302.79122     -1474.208       1314.6226      2548.1039     -9.620769     
  18870000   301.64886     -1478.1693      1253.4491      2472.7537      4.9075831    
  18875000   300.67721     -1449.304       1311.3819      2550.8627      19.868817    
  18880000   292.37148     -1439.0072      1243.0873      2418.5917      11.154051    
  18885000   299.45686     -1514.763       1273.2118      2436.3209     -9.0265552    
  18890000   296.21907     -1483.2736      1263.2301      2428.8748     -3.895663     
  18895000   292.69951     -1469.5251      1234.1517      2382.0715     -4.987582     
  18900000   301.18685     -1485.783       1278.6115      2486.1709      4.5637455    
  18905000   305.22798     -1495.2098      1221.3072      2455.5773     -6.3817565    
  18910000   300.34884     -1538.8435      1239.6678      2386.6728      8.225402     
  18915000   301.31121     -1508.6428      1304.0167      2489.8284      1.3708318    
  18920000   300.30253     -1517.1661      1219.5114      2387.7797      17.568999    
  18925000   297.41873     -1493.1651      1284.5487      2451.0298      5.587143     
  18930000   307.25085     -1457.1645      1302.1427      2592.5474      16.666872    
  18935000   301.09932     -1493.4917      1222.6035      2421.6714     -9.7679632    
  18940000   299.47113     -1473.9344      1257.0231      2461.0883     -13.404049    
  18945000   298.75785     -1455.7013      1250.5854      2466.5053     -2.7652981    
  18950000   300.66943     -1429.1579      1275.0195      2534.577      -8.1433745    
  18955000   300.51258     -1440.1693      1293.113       2540.2564      0.51886939   
  18960000   299.92181     -1456.7756      1259.6037      2484.8579     -17.478954    
  18965000   290.93199     -1489.0935      1276.9544      2389.5         22.105632    
  18970000   299.51853     -1516.6987      1287.3058      2449.0306      11.817287    
  18975000   301.64675     -1511.02        1290.2103      2476.6453     -8.8015655    
  18980000   302.88113     -1504.0859      1295.0991      2499.5065      16.747545    
  18985000   299.22865     -1480.6997      1299.8378      2494.9695      21.104897    
  18990000   301.53139     -1482.2407      1230.8658      2445.0485      9.3329501    
  18995000   304.01214     -1465.1472      1230.3621      2483.8222      9.314384     
  19000000   300.02269     -1453.2267      1271.9618      2501.6671      16.033365    
  19005000   302.08005     -1434.6029      1223.0098      2489.7366      8.5565479    
  19010000   288.4708      -1409.5813      1261.0363      2431.085       7.4018312    
  19015000   309.08136     -1422.9654      1235.4939      2576.467       19.422432    
  19020000   298.13509     -1448.5009      1218.1097      2435.6609     -7.7062263    
  19025000   300.19947     -1435.095       1256.6738      2506.0916      17.781875    
  19030000   299.29983     -1463.5854      1276.3143      2489.1967      13.824712    
  19035000   307.97211     -1469.7146      1244.143       2528.4475      6.8973031    
  19040000   306.95129     -1499.3556      1236.2528      2481.7877      5.6393858    
  19045000   293.88139     -1500.2721      1275.9794      2403.7211     -12.946205    
  19050000   304.68542     -1499.5191      1292.1833      2517.2922      7.7852141    
  19055000   293.77782     -1504.6646      1261.6141      2384.0371      9.1582947    
  19060000   304.66783     -1512.9555      1263.3555      2474.8708      12.34896     
  19065000   290.69688     -1498.4812      1288.8929      2389.9482      10.671174    
  19070000   307.83753     -1477.9831      1241.4893      2516.3218      15.92825     
  19075000   306.39989     -1490.6874      1231.6469      2480.9192      10.085479    
  19080000   304.24897     -1496.4637      1286.5389      2510.8004      3.853612     
  19085000   300.32596     -1510.4179      1205.3297      2380.5557      2.4576702    
  19090000   307.74759     -1520.525       1314.98        2546.4663     -3.6786474    
  19095000   300.20947     -1495.2422      1277.3508      2466.7109     -3.3623134    
  19100000   301.178       -1500.2731      1259.0034      2451.9935      1.7145791    
  19105000   309.10849     -1486.3044      1255.1754      2533.0521      14.841697    
  19110000   299.77236     -1501.1033      1244.042       2423.6321     -2.9406444    
  19115000   302.5191      -1504.0018      1297.9454      2499.1995      17.155115    
  19120000   301.94049     -1509.2796      1307.5451      2498.3473      25.475438    
  19125000   296.68812     -1489.6018      1261.7944      2425.3054      8.6316342    
  19130000   300.78182     -1470.8313      1256.1956      2475.0848      4.48321      
  19135000   305.41329     -1477.1831      1359.3711      2613.3249      10.00423     
  19140000   292.42281     -1494.8958      1275.7724      2395.8472      18.744627    
  19145000   296.9004      -1489.3475      1280.8454      2446.5091      5.3385822    
  19150000   296.77133     -1476.6147      1281.1704      2458.4126      7.3930342    
  19155000   300.97848     -1503.8154      1303.9177      2491.5813      18.487407    
  19160000   307.15412     -1513.7573      1262.5177      2495.4647      12.521346    
  19165000   307.5519      -1514.5054      1249.7289      2485.4848      14.401852    
  19170000   298.35984     -1489.9316      1275.2404      2453.3708      8.5989462    
  19175000   300.48911     -1487.0671      1254.0456      2454.0814      21.40556     
  19180000   304.79331     -1513.605       1236.1357      2448.1236      1.8237691    
  19185000   301.16745     -1469.0516      1270.1542      2494.2715      9.6885874    
  19190000   291.60465     -1460.306       1278.8626      2426.2108      7.9209772    
  19195000   298.5615      -1454.2961      1260.6405      2476.2097     -6.5211388    
  19200000   306.95984     -1421.7979      1284.7914      2607.9604      22.661845    
  19205000   304.31677     -1422.1305      1281.0055      2580.2064      9.0417453    
  19210000   305.48419     -1441.2979      1268.7285      2559.2016     -7.7193239    
  19215000   295.53507     -1426.1931      1242.3369      2458.9455      11.994529    
  19220000   301.30103     -1400.0779      1286.5989      2580.8844      4.786054     
  19225000   300.30252     -1407.9985      1302.3335      2579.7693     -1.4265594    
  19230000   301.33456     -1402.025       1298.7725      2591.4107      13.38805     
  19235000   295.15394     -1406.5354      1294.5898      2527.4479     -2.5746002    
  19240000   295.38815     -1393.3556      1266.2693      2514.4016      17.819579    
  19245000   300.93991     -1417.9222      1236.8865      2510.0985      19.329959    
  19250000   296.28621     -1399.496       1258.7644      2508.7871      7.7083648    
  19255000   298.64834     -1429.9656      1280.0269      2520.7032     -16.964439    
  19260000   304.71057     -1438.2294      1215.2089      2501.8325      1.8435185    
  19265000   308.70474     -1472.4753      1273.9407      2562.036       8.9702135    
  19270000   304.31675     -1494.4444      1279.5506      2506.4375      5.2610912    
  19275000   295.94841     -1521.6501      1236.0113      2360.8591     -18.784102    
  19280000   297.77838     -1520.0472      1223.418       2366.2332      11.907473    
  19285000   303.14892     -1517.7923      1230.7182      2423.814       5.6546874    
  19290000   299.12427     -1508.3596      1298.4733      2465.0116      3.2590175    
  19295000   303.65607     -1447.8098      1266.6554      2534.2689      0.95759211   
  19300000   291.80558     -1478.637       1192.2848      2323.0989      16.574742    
  19305000   309.28419     -1507.9556      1222.967       2480.7636      20.560636    
  19310000   305.23222     -1441.8938      1307.2936      2594.9176     -15.281032    
  19315000   300.78488     -1477.1152      1278.0478      2490.6803     -2.5940485    
  19320000   305.50386     -1469.8563      1237.8144      2499.9051      12.734492    
  19325000   298.42489     -1462.6118      1260.4335      2466.4654     -0.84511394   
  19330000   303.79485     -1450.6616      1277.506       2543.5086      9.3392615    
  19335000   297.97523     -1411.7747      1216.4604      2469.3084      7.8367547    
  19340000   300.57008     -1420.6418      1238.2867      2505.4718      24.661597    
  19345000   299.60127     -1403.916       1272.7814      2548.0289      15.312508    
  19350000   299.59688     -1414.0077      1297.4968      2562.6133     -2.2636028    
  19355000   301.02854     -1424.772       1278.1922      2545.3469     -4.6450328    
  19360000   299.32366     -1477.7925      1262.0181      2460.9065      9.2940196    
  19365000   295.83125     -1441.1075      1269.9956      2474.3384     -6.4300113    
  19370000   296.9851      -1457.2979      1218.2745      2416.745       5.5479259    
  19375000   297.68773     -1489.6851      1303.6952      2476.0618      29.623458    
  19380000   300.90617     -1491.217       1253.2852      2452.9006      4.1615631    
  19385000   297.06643     -1473.3019      1282.8555      2466.0494      2.7504562    
  19390000   306.48575     -1469.4935      1250.2287      2521.4627     -0.54256004   
  19395000   300.8675      -1437.7639      1240.3416      2493.0643      15.821424    
  19400000   304.18387     -1440.2086      1277.1378      2557.0722      8.7903797    
  19405000   300.55747     -1437.0393      1250.6733      2501.3482      10.944365    
  19410000   304.62195     -1449.6234      1250.1756      2524.6128      5.7315973    
  19415000   301.63213     -1468.0692      1281.3069      2510.562       3.8289537    
  19420000   302.30169     -1507.4633      1305.8397      2501.6882      11.84223     
  19425000   295.88381     -1502.3276      1261.5164      2405.1091     -0.10908133   
  19430000   310.01787     -1474.6821      1290.1776      2587.8086     -13.834857    
  19435000   297.83548     -1494.4362      1255.6126      2424.5493      0.13746666   
  19440000   303.17485     -1478.1368      1301.3462      2534.3294     -5.0134539    
  19445000   295.0122      -1539.9298      1255.3834      2353.5796     -0.71628792   
  19450000   302.95423     -1532.3017      1277.3382      2454.1836      12.433791    
  19455000   303.39466     -1507.6752      1296.7063      2502.1166     -1.745659     
  19460000   297.80969     -1503.1099      1224.9775      2385.0099      1.0211884    
  19465000   296.1697      -1510.3324      1283.3881      2421.5325     -7.3312696    
  19470000   301.82976     -1499.645       1210.015       2409.4615      22.496805    
  19475000   303.97099     -1512.7262      1263.1316      2468.6447      3.5092343    
  19480000   303.62661     -1514.9446      1301.9385      2502.1537      1.5879183    
  19485000   301.58242     -1491.2297      1316.9655      2522.6155      14.866341    
  19490000   311.80052     -1428.2174      1292.6883      2652.7252      15.968213    
  19495000   296.15813     -1462.8921      1212.5244      2398.0057      27.257177    
  19500000   293.88369     -1438.2513      1281.5566      2471.3397      3.5006355    
  19505000   300.32117     -1453.7092      1239.6638      2471.5558      4.8317243    
  19510000   305.11052     -1448.7129      1268.9898      2548.7064     -17.832842    
  19515000   300.99261     -1457.1821      1239.775       2474.1983      12.582181    
  19520000   296.76865     -1477.5775      1252.6387      2428.8942      0.26336902   
  19525000   296.02496     -1431.8376      1200.5418      2415.8867      4.1757538    
  19530000   300.96783     -1447.6487      1270.2817      2514.0168      11.415925    
  19535000   298.83518     -1442.0951      1255.7628      2485.9804      18.488719    
  19540000   302.91521     -1464.6428      1322.7604      2566.9157      7.508757     
  19545000   301.87224     -1497.0776      1227.3239      2429.7178     -2.0034885    
  19550000   306.55762     -1468.7245      1283.9151      2556.5607     -0.21344359   
  19555000   300.08238     -1454.0575      1259.0925      2488.5008      10.564744    
  19560000   297.81095     -1487.9521      1238.6299      2413.8314      6.997658     
  19565000   297.65135     -1470.4681      1256.3902      2447.6484     -19.288657    
  19570000   303.93372     -1466.7988      1254.5638      2505.6711      8.9665576    
  19575000   298.62697     -1476.2453      1271.1225      2465.3279      2.9922416    
  19580000   302.77328     -1449.4378      1272.959       2531.0501      16.85614     
  19585000   299.2985      -1515.9672      1250.1069      2410.5956      8.7686667    
  19590000   302.62344     -1485.8385      1293.6277      2513.9782      2.0181733    
  19595000   311.94292     -1509.3059      1251.1781      2531.3999      5.9878638    
  19600000   304.0181      -1461.2867      1295.0452      2552.4191     -14.07317     
  19605000   289.79576     -1471.116       1274.2667      2394.6291      13.926749    
  19610000   304.1732      -1456.944       1278.8219      2541.9255     -15.113706    
  19615000   295.12549     -1430.6704      1240.831       2449.2997      6.4963759    
  19620000   296.35703     -1421.358       1326.2236      2555.0176      8.6931635    
  19625000   299.67512     -1414.0706      1314.3271      2580.0804      17.763805    
  19630000   304.51936     -1400.7366      1238.724       2561.1306     -3.1406098    
  19635000   301.62399     -1388.2342      1223.3891      2532.4063      2.8045062    
  19640000   297.98689     -1396.5444      1287.6201      2555.8026      1.7546814    
  19645000   294.9245      -1375.0329      1302.105       2564.4139      5.4849535    
  19650000   296.26311     -1395.8173      1276.1424      2529.6373      4.0408617    
  19655000   296.15259     -1387.1154      1231.9271      2493.1356      26.371535    
  19660000   298.00689     -1415.3333      1290.1175      2539.6901      12.770504    
  19665000   301.34029     -1390.1188      1324.3891      2628.9848      14.830138    
  19670000   296.40695     -1446.5626      1277.786       2481.8219      11.284181    
  19675000   306.71276     -1434.6263      1267.3141      2575.4453      1.7173713    
  19680000   302.66875     -1458.1981      1261.5091      2509.9052      2.81899      
  19685000   297.72849     -1461.4416      1304.6656      2505.6402     -2.6143986    
  19690000   298.78562     -1493.6133      1213.7828      2392.039      -5.4987022    
  19695000   297.1466      -1468.9946      1283.198       2471.4161      7.4989937    
  19700000   293.89446     -1448.1145      1247.6146      2427.6308     -0.44129636   
  19705000   302.69542     -1473.0704      1254.4887      2488.251       3.8607927    
  19710000   298.33411     -1432.1674      1232.7482      2468.4127     -3.2630971    
  19715000   292.49323     -1472.5683      1309.751       2452.7829      6.751186     
  19720000   300.71225     -1475.7673      1270.7405      2484.0715      2.5137125    
  19725000   294.38819     -1485.6997      1260.4027      2407.2489      12.985042    
  19730000   301.20343     -1521.0247      1255.3264      2427.7923      2.6663977    
  19735000   296.66899     -1484.3138      1323.0616      2491.6894      2.8229068    
  19740000   304.35549     -1486.3325      1266.5354      2501.8806      8.9682044    
  19745000   298.18323     -1455.3721      1242.7966      2453.9072      15.233628    
  19750000   298.1976      -1489.6702      1254.8143      2431.7554     -15.801636    
  19755000   296.38803     -1468.7591      1216.935       2398.6052      13.497367    
  19760000   299.37457     -1472.0386      1255.6986      2460.7961      8.1156137    
  19765000   302.56204     -1472.651       1263.323       2496.312       2.4773068    
  19770000   296.40852     -1518.5996      1220.2763      2352.2893      7.2411468    
  19775000   300.65355     -1472.4855      1262.7054      2478.7932     -2.3946622    
  19780000   297.42604     -1513.4819      1275.0895      2421.3192     -2.8151692    
  19785000   303.07205     -1470.7018      1277.9043      2517.4032      7.2672708    
  19790000   300.97356     -1477.4791      1274.9644      2488.9204     -10.609258    
  19795000   299.67549     -1489.2578      1324.597       2515.1663      2.1771705    
  19800000   293.78117     -1494.6885      1272.9692      2405.3983      5.1238577    
  19805000   299.38775     -1502.5774      1253.6753      2428.3519     -4.6618153    
  19810000   289.95066     -1480.1146      1257.8315      2370.5804      14.463359    
  19815000   299.4955      -1510.7868      1214.2226      2381.6534      10.730561    
  19820000   300.3795      -1494.8607      1238.1729      2429.4349      3.8182613    
  19825000   296.57683     -1479.4117      1248.593       2421.2989      1.2689853    
  19830000   295.30215     -1496.667       1229.0946      2373.1466      8.877977     
  19835000   303.39394     -1489.502       1332.5179      2556.095       8.2652058    
  19840000   291.34398     -1527.5958      1312.007       2389.7344      29.856546    
  19845000   294.01153     -1516.9477      1305.3788      2417.6086     -5.5238593    
  19850000   300.24536     -1533.785       1237.6774      2388.8155     -4.599657     
  19855000   305.71858     -1544.8955      1243.5478      2432.5194     -0.23470478   
  19860000   296.85785     -1550.2243      1248.334       2352.7403      18.08918     
  19865000   296.88569     -1537.3267      1222.6294      2340.1822      9.1235506    
  19870000   300.72815     -1581.9544      1327.1672      2434.4533      1.5035757    
  19875000   301.38334     -1583.055       1272.723       2384.7675      12.109229    
  19880000   301.72298     -1604.3964      1197.3741      2291.1144      18.205592    
  19885000   300.10373     -1594.9567      1252.6146      2341.3146     -10.528466    
  19890000   297.49223     -1576.2673      1233.6782      2317.7144      13.059325    
  19895000   298.14549     -1557.7479      1211.3625      2319.7599     -1.0459819    
  19900000   299.20976     -1525.5313      1241.4735      2391.6046      7.8251855    
  19905000   301.84714     -1558.5222      1272.9186      2413.6434      15.490079    
  19910000   303.95944     -1544.8093      1233.2841      2406.6109     -2.518072     
  19915000   304.14824     -1566.3143      1206.9769      2360.487       14.759986    
  19920000   298.51047     -1576.9852      1208.9256      2301.3495      8.0378681    
  19925000   299.84275     -1518.2741      1237.3837      2400.4324     -9.581506     
  19930000   308.87598     -1555.0083      1233.2125      2440.306       13.946827    
  19935000   293.90758     -1549.4622      1253.4826      2332.2684     -0.53184931   
  19940000   299.30609     -1587.3375      1266.8952      2356.0815     -3.697312     
  19945000   299.02586     -1545.557       1285.6614      2414.1224      10.454146    
  19950000   304.98632     -1547.2072      1274.349       2454.4607      8.7373435    
  19955000   297.90709     -1503.5894      1244.2786      2404.7026     -1.8261684    
  19960000   306.23601     -1502.3699      1214.6096      2450.7338     -17.210455    
  19965000   298.71847     -1453.7236      1298.6238      2516.1693     -1.3870631    
  19970000   295.70608     -1472.3678      1263.7446      2435.7078      4.1640973    
  19975000   290.19367     -1492.2478      1247.449       2350.2377     -3.4557697    
  19980000   303.32747     -1499.4892      1289.8315      2502.827      -15.886096    
  19985000   308.76015     -1488.6953      1279.2442      2551.615       1.8992526    
  19990000   299.69074     -1486.9636      1289.6823      2482.6822      14.462066    
  19995000   294.02087     -1486.9417      1245.9836      2388.303      -9.0343704    
  20000000   296.7302      -1521.3262      1229.3149      2361.4778      9.6234328    
  20005000   303.64354     -1527.0905      1287.1935      2475.4141      17.24372     
  20010000   297.64116     -1505.4769      1308.418       2464.5764     -5.8521572    
  20015000   295.19504     -1508.0932      1228.6373      2360.305       6.0425767    
  20020000   305.36737     -1497.2256      1275.8488      2509.3496     -8.4582598    
  20025000   295.49302     -1473.9855      1197.9779      2366.418       11.060237    
  20030000   299.91665     -1492.2769      1238.9426      2428.6493      4.544546     
  20035000   305.03142     -1492.8116      1309.5643      2544.4749      16.766074    
  20040000   297.12485     -1487.7557      1248.5585      2417.8211      6.407793     
  20045000   299.70035     -1479.1951      1259.3329      2460.1873      18.634836    
  20050000   297.99156     -1507.8277      1240.7482      2397.6892      0.29944377   
  20055000   301.08732     -1476.9129      1272.0943      2487.6337      5.0291689    
  20060000   300.82078     -1471.9205      1301.4904      2519.6386     -20.499175    
  20065000   300.57402     -1452.9814      1244.1724      2479.0532     -7.2579252    
  20070000   295.18018     -1416.3342      1270.9055      2494.1995      3.1137834    
  20075000   301.86187     -1481.5876      1270.8865      2488.6775      10.078585    
  20080000   300.55661     -1459.7014      1245.9104      2473.9155      23.15112     
  20085000   304.07086     -1463.3337      1223.2136      2479.0123     -6.0029338    
  20090000   306.48413     -1464.1         1259.2328      2535.8457     -10.290399    
  20095000   286.85097     -1454.3163      1236.5216      2347.3501      18.765416    
  20100000   299.8703      -1439.9105      1309.162       2550.8207      15.170775    
  20105000   296.66369     -1411.4448      1277.2599      2518.7095      20.254301    
  20110000   297.09128     -1387.3951      1245.354       2514.677      -15.383775    
  20115000   299.82052     -1441.0058      1234.6071      2474.7254     -9.4099631    
  20120000   299.07258     -1445.1492      1229.0005      2458.287      -2.4137987    
  20125000   297.67499     -1449.0021      1248.0131      2460.9489      16.64976     
  20130000   302.93059     -1479.1307      1245.0368      2474.8417      5.4161287    
  20135000   291.92153     -1448.6388      1278.0187      2439.8678      17.597983    
  20140000   295.58342     -1451.3857      1276.664       2468.5124     -4.7811493    
  20145000   297.82371     -1501.1353      1288.1617      2450.2942      8.9908831    
  20150000   299.9559      -1469.5248      1270.8228      2483.6327      10.321584    
  20155000   304.63955     -1501.2196      1222.2559      2445.2541      17.513162    
  20160000   299.59974     -1483.8542      1261.1445      2456.4399      3.7568516    
  20165000   303.86468     -1494.0954      1237.8058      2460.9992      30.618175    
  20170000   295.31166     -1455.4679      1234.729       2420.065       8.5404034    
  20175000   304.43448     -1452.8636      1318.6646      2588.185       28.577894    
  20180000   307.24016     -1456.8525      1238.0441      2528.6653     -3.7947535    
  20185000   296.2759      -1442.1076      1261.1217      2468.4406      15.76077     
  20190000   298.51604     -1474.4417      1213.9692      2408.9864      8.2588657    
  20195000   294.62418     -1438.4231      1237.7086      2433.9417      1.7912249    
  20200000   302.9245      -1431.425       1252.7172      2530.1734      10.411328    
  20205000   299.34052     -1424.5661      1252.0301      2504.2956      14.637248    
  20210000   296.77647     -1421.0657      1301.1595      2533.9968     -0.086346958  
  20215000   301.05305     -1428.0447      1240.9909      2505.092       14.225638    
  20220000   303.8461      -1483.6176      1235.3477      2468.8526      3.3322421    
  20225000   304.00107     -1432.2827      1261.3371      2547.5627      4.8167548    
  20230000   303.47248     -1463.7938      1245.7107      2495.6983      19.506053    
  20235000   305.57432     -1455.8474      1273.5836      2550.3133      15.066149    
  20240000   297.84587     -1447.5754      1239.6928      2455.5832     -0.26699048   
  20245000   301.13115     -1450.1115      1300.8197      2543.5525      12.440432    
  20250000   297.1908      -1501.1398      1289.5995      2446.0677     -20.466764    
  20255000   302.18253     -1494.3005      1217.7727      2425.7183     -7.5037569    
  20260000   300.79011     -1497.8822      1237.294       2429.2064      14.942725    
  20265000   294.50801     -1495.574       1206.3174      2344.3607     -6.6250078    
  20270000   300.72006     -1474.1213      1253.4313      2468.4781      6.7984954    
  20275000   300.74275     -1476.8554      1322.9823      2535.498       1.032707     
  20280000   298.02578     -1484.2075      1236.7379      2417.6051      7.4730676    
  20285000   299.74845     -1469.0883      1249.7763      2461.1676      6.5154433    
  20290000   294.14332     -1464.1398      1277.3371      2443.5534      1.256147     
  20295000   301.83145     -1473.1796      1272.7405      2498.6676      12.474238    
  20300000   301.1061      -1447.911       1295.9706      2540.6799     -5.168242     
  20305000   307.68947     -1443.6734      1300.4534      2608.2716      6.9009633    
  20310000   302.17239     -1442.2116      1240.0692      2500.0131      4.2452177    
  20315000   300.11938     -1449.2314      1240.8228      2475.388      -5.4122658    
  20320000   296.63364     -1468.8586      1301.3456      2485.1126      7.8014025    
  20325000   301.76752     -1424.226       1241.7744      2516.0835      9.8198421    
  20330000   303.02233     -1462.0194      1271.2544      2518.9911      6.0273688    
  20335000   298.77345     -1430.3362      1272.3125      2513.7369      4.9521602    
  20340000   301.12114     -1425.5328      1269.5201      2536.742       0.7848745    
  20345000   293.25531     -1428.3332      1257.6669      2451.7489      8.6803823    
  20350000   302.43573     -1453.5855      1274.6375      2525.5624     -9.2799847    
  20355000   294.00036     -1413.5287      1288.1464      2503.6955      8.0448902    
  20360000   295.25445     -1431.8939      1277.583       2485.9813      9.0784813    
  20365000   298.22701     -1467.0363      1315.5621      2515.4         3.9641363    
  20370000   304.30635     -1430.3411      1294.3161      2585.2132      3.0577736    
  20375000   301.52973     -1384.8817      1334.5611      2646.0879      10.597165    
  20380000   300.76199     -1401.9387      1259.9067      2547.5111      2.8970936    
  20385000   308.16124     -1401.1074      1245.4109      2600.0138      7.0254653    
  20390000   304.93283     -1394.941       1261.7309      2593.6304     -5.3591731    
  20395000   295.36712     -1378.7825      1277.4638      2539.9811     -0.31201952   
  20400000   300.18759     -1356.396       1266.9003      2594.9108      13.125712    
  20405000   296.65716     -1342.4555      1339.3417      2649.7221      29.325923    
  20410000   307.4738      -1315.1441      1291.1582      2725.577       6.5143902    
  20415000   294.96258     -1354.7586      1292.9495      2575.8732      0.19041836   
  20420000   294.83864     -1342.301       1303.7872      2598.0602     -1.1433686    
  20425000   300.19092     -1388.2925      1289.5642      2585.708      -10.244166    
  20430000   302.31266     -1347.7083      1270.8969      2626.5984      14.27274     
  20435000   306.00515     -1364.0848      1295.9005      2668.2454      0.35862026   
  20440000   295.51242     -1381.2028      1238.4703      2499.8667     -1.0318107    
  20445000   295.37977     -1404.234       1310.8726      2548.0516      10.943683    
  20450000   299.0611      -1428.052       1272.5248      2518.8058      21.067607    
  20455000   305.49389     -1432.5235      1259.836       2559.1703      20.463882    
  20460000   310.4345      -1432.8143      1257.245       2600.4695      15.419931    
  20465000   299.88041     -1412.789       1215.9086      2484.7792      11.613787    
  20470000   305.93518     -1384.8289      1234.4426      2585.4178     -5.7820636    
  20475000   286.56803     -1396.7462      1223.6474      2389.5159      12.247379    
  20480000   307.74321     -1413.4116      1313.4527      2652.0133      8.9607015    
  20485000   294.26964     -1418.2512      1261.1842      2474.4187     -2.6514787    
  20490000   300.08247     -1397.7746      1244.9907      2530.6826      0.53217233   
  20495000   305.48889     -1400.3986      1280.8238      2612.2382      7.1126929    
  20500000   303.58051     -1400.5727      1276.8355      2591.0103     -9.3056439    
  20505000   299.36863     -1424.2559      1211.6044      2464.4316     -7.6742056    
  20510000   297.81932     -1436.2249      1192.2528      2419.2564     -16.551232    
  20515000   296.47779     -1440.7568      1270.8339      2481.3091      4.3851309    
  20520000   298.96932     -1425.7546      1257.5613      2505.319      -1.4087904    
  20525000   300.65065     -1451.9579      1262.7682      2499.3578      2.2202047    
  20530000   306.24495     -1450.7792      1224.9041      2512.699       8.8227364    
  20535000   296.02536     -1433.6118      1278.0703      2491.6446      2.0453632    
  20540000   305.67555     -1426.8166      1233.9251      2540.5908      3.3899314    
  20545000   303.39855     -1415.147       1201.5455      2499.5189      19.816952    
  20550000   305.0334      -1457.8645      1258.7154      2528.5907      3.6997963    
  20555000   298.38043     -1430.1249      1252.8217      2490.9429     -11.390883    
  20560000   302.45511     -1426.7343      1304.7868      2582.7362      12.392178    
  20565000   301.19534     -1427.3378      1281.4138      2547.4943      7.5277824    
  20570000   307.82011     -1446.2659      1233.2647      2539.6586      12.564599    
  20575000   301.41018     -1456.7476      1275.2527      2513.8445      6.2697444    
  20580000   299.04524     -1438.0897      1275.7033      2511.8048     -0.24861581   
  20585000   300.79272     -1453.3676      1267.8241      2504.2743     -5.6306525    
  20590000   296.76912     -1446.4735      1301.064       2508.4276      0.7716958    
  20595000   297.07597     -1455.4337      1215.8752      2417.0226      1.4674088    
  20600000   301.73409     -1481.6632      1268.1116      2484.6844      7.2922943    
  20605000   297.86832     -1488.6972      1248.0248      2422.9942      7.5666419    
  20610000   305.20161     -1468.0446      1237.078       2498.2775     -1.7960299    
  20615000   299.99986     -1474.6982      1289.6982      2497.7279      4.4203431    
  20620000   303.38405     -1496.0647      1287.0226      2503.9485      7.6611449    
  20625000   294.23793     -1505.3832      1229.737       2355.5559      4.2147885    
  20630000   306.39533     -1502.5769      1264.1797      2501.5216      18.361079    
  20635000   292.01459     -1469.7667      1272.3373      2413.8906      10.979224    
  20640000   299.00429     -1491.1528      1285.811       2468.4832      2.219297     
  20645000   304.84047     -1501.7073      1307.0037      2531.3111      16.747284    
  20650000   308.77647     -1513.967       1290.6765      2537.9216      7.6733281    
  20655000   300.53672     -1480.3025      1222.0265      2429.2527      2.6713264    
  20660000   309.94409     -1485.9209      1240.993       2526.7254      8.3824983    
  20665000   298.22302     -1490.6469      1279.028       2455.2196     -6.4258481    
  20670000   303.5321      -1542.907       1295.3974      2466.805      -0.19403983   
  20675000   301.46259     -1467.0039      1247.0305      2475.8348     -0.43784956   
  20680000   297.8432      -1500.6919      1276.7989      2439.549      -2.2734958    
  20685000   295.75083     -1498.5227      1226.9932      2373.2017      2.9434733    
  20690000   296.30236     -1486.4116      1275.944       2439.1956     -27.543861    
  20695000   299.54418     -1540.4947      1268.506       2406.6642     -8.3817243    
  20700000   302.61707     -1519.2018      1242.8609      2429.7911     -6.0664416    
  20705000   303.42456     -1537.8303      1282.6583      2458.181       25.689023    
  20710000   301.30014     -1528.2849      1251.0261      2417.0966      1.7533917    
  20715000   297.87081     -1511.7865      1241.5275      2393.4299      19.782279    
  20720000   300.42479     -1488.7441      1251.3379      2449.1216     -8.6196785    
  20725000   295.20265     -1467.0728      1266.7377      2439.4941     -7.3378       
  20730000   298.77388     -1488.3668      1251.6667      2435.0645      10.972381    
  20735000   296.34066     -1479.0632      1261.2894      2432.2319      20.371289    
  20740000   300.4525      -1476.7086      1234.7183      2444.7852      22.906487    
  20745000   301.81935     -1493.1735      1251.8466      2457.6715      4.287423     
  20750000   301.94975     -1486.0317      1240.908       2455.0408     -7.5940579    
  20755000   298.09657     -1449.5138      1283.9651      2500.159       12.11971     
  20760000   302.00347     -1481.7303      1253.3674      2472.282      -0.48986922   
  20765000   301.83266     -1464.2873      1250.9777      2485.8079      1.4713004    
  20770000   299.9984      -1432.0812      1229.7857      2480.4193     -12.27527     
  20775000   298.24744     -1426.2187      1300.5924      2541.4306      15.114747    
  20780000   302.3017      -1439.2564      1271.3381      2535.3936     -1.9982254    
  20785000   296.87464     -1429.7198      1257.0425      2482.1035     -15.13906     
  20790000   296.77236     -1472.7706      1228.684       2409.7796      18.613969    
  20795000   303.1274      -1472.1975      1262.485       2500.9831      21.727079    
  20800000   292.46748     -1451.4901      1291.2492      2455.1292     -14.716319    
  20805000   295.73258     -1414.1882      1254.2855      2484.6653      13.548479    
  20810000   298.73778     -1428.0488      1253.8226      2497.2155      5.6444116    
  20815000   300.88892     -1432.4744      1247.8207      2506.0245      15.689529    
  20820000   296.9661      -1423.6819      1224.8517      2456.7685      16.149724    
  20825000   306.99091     -1415.6806      1278.8952      2608.4594     -4.6363613    
  20830000   310.57689     -1405.9285      1294.0781      2665.4617     -25.983383    
  20835000   304.6647      -1429.8295      1248.3594      2542.9727      6.7445731    
  20840000   305.93311     -1421.5775      1328.9051      2643.1131     -15.538515    
  20845000   300.91228     -1406.4456      1227.6633      2512.1048      5.2512481    
  20850000   297.68007     -1458.7621      1273.9778      2477.199       6.9205341    
  20855000   305.81626     -1440.407       1270.437       2564.7706      6.9435696    
  20860000   295.46068     -1403.6142      1228.7479      2467.2702      8.1802387    
  20865000   294.29209     -1418.3276      1299.2249      2512.5838     -0.65609964   
  20870000   295.67289     -1436.2513      1302.4871      2510.27       -25.509594    
  20875000   299.25122     -1461.0316      1263.6465      2478.6481      3.983645     
  20880000   302.00967     -1443.6688      1277.2689      2534.3005      16.685018    
  20885000   296.50386     -1442.7762      1296.2171      2504.906       9.4680375    
  20890000   299.56847     -1461.203       1310.3031      2527.9702      3.8227352    
  20895000   303.06463     -1475.9973      1257.9656      2492.1026     -0.48300576   
  20900000   293.36512     -1477.7195      1294.004       2439.6815      24.245241    
  20905000   307.83736     -1481.8895      1227.962       2498.8865      12.378345    
  20910000   298.34553     -1481.8619      1230.4706      2416.5428     -9.4837809    
  20915000   303.43946     -1456.2141      1229.2126      2486.4847      6.094112     
  20920000   294.0445      -1466.7736      1282.6084      2445.3072      3.3876533    
  20925000   296.49585     -1466.7668      1225.521       2410.1477     -1.0697596    
  20930000   296.93125     -1463.3932      1238.1464      2430.0402      2.0722454    
  20935000   293.59293     -1475.6026      1292.1677      2441.9993     -7.5702711    
  20940000   297.85788     -1435.4009      1296.1133      2524.2856      2.8452781    
  20945000   299.0668      -1418.0294      1263.7068      2520.0614      16.050326    
  20950000   299.82158     -1441.2377      1256.3121      2496.208       10.150765    
  20955000   294.30371     -1439.556       1225.9855      2418.2199     -0.90429202   
  20960000   302.3021      -1441.7379      1281.2031      2542.7806      9.7617584    
  20965000   295.86831     -1462.5167      1294.7205      2477.9855     -4.8784736    
  20970000   298.08433     -1459.2098      1236.4956      2442.8841      5.33821      
  20975000   303.77481     -1479.8154      1242.7354      2479.405       11.166992    
  20980000   296.57095     -1460.7048      1261.235       2452.5952     -2.2906746    
  20985000   303.25644     -1421.6011      1247.2317      2537.4801      9.7500884    
  20990000   301.74045     -1414.5818      1262.8074      2546.5185      20.205207    
  20995000   292.84065     -1430.8721      1266.3634      2454.1985     -19.668998    
  21000000   297.35651     -1428.068       1221.939       2452.9609      2.1322292    
  21005000   299.60425     -1445.7519      1280.0535      2513.4917      7.4736384    
  21010000   305.75784     -1471.376       1271.9461      2534.7882     -9.7502641    
  21015000   305.98364     -1482.7074      1255.0391      2508.569       13.027138    
  21020000   294.23309     -1480.908       1228.4662      2378.717      -0.93783143   
  21025000   297.43336     -1458.3299      1296.3372      2497.7843     -1.14293      
  21030000   295.9418      -1465.2753      1299.1009      2480.2644      9.786241     
  21035000   292.68075     -1472.2755      1269.3231      2414.3247      2.1954108    
  21040000   303.4917      -1462.1289      1331.0825      2582.907      -5.5007367    
  21045000   305.97085     -1486.9164      1269.2828      2518.4893      13.546268    
  21050000   294.53581     -1461.8329      1264.6054      2436.6384      6.317191     
  21055000   297.40731     -1462.2345      1242.6928      2440.0024      13.611959    
  21060000   293.63607     -1486.5706      1279.9273      2419.1768     -4.3869632    
  21065000   294.75929     -1511.4154      1246.2989      2370.7478     -7.0161349    
  21070000   299.8498      -1486.9668      1215.709       2410.1281      11.00437     
  21075000   306.10987     -1506.407       1206.9549      2437.914       6.3614839    
  21080000   303.98116     -1501.7772      1289.0944      2505.6474      3.6286277    
  21085000   293.02307     -1502.9733      1223.8337      2341.1988      12.834737    
  21090000   295.75254     -1526.6888      1289.4585      2407.516       16.969896    
  21095000   299.78715     -1522.6457      1337.8731      2496.053       7.7067871    
  21100000   292.74609     -1490.6318      1255.3259      2382.5555      15.66824     
  21105000   300.00029     -1489.784       1276.3956      2469.3432      1.3110633    
  21110000   298.67651     -1496.9035      1230.6876      2404.6779      8.4349716    
  21115000   301.34412     -1502.9465      1221.4051      2413.2073      1.4051349    
  21120000   301.71777     -1501.4549      1276.3645      2472.9997      19.479216    
  21125000   297.48719     -1460.0236      1292.2559      2492.4908     -2.4427818    
  21130000   298.60191     -1458.231       1258.1618      2470.1576      1.5340248    
  21135000   301.56229     -1478.1574      1297.7842      2516.3266     -11.852946    
  21140000   295.81704     -1496.367       1245.359       2394.3153      1.0674183    
  21145000   298.31551     -1465.1921      1287.1607      2489.6342     -0.82472503   
  21150000   300.96375     -1499.0428      1234.6172      2426.9218      2.1993383    
  21155000   299.43065     -1506.0302      1253.5219      2425.1294      0.51744817   
  21160000   299.90464     -1497.5151      1275.1149      2459.4761      5.259707     
  21165000   296.67596     -1520.7259      1280.2455      2412.5237     -15.732507    
  21170000   294.19146     -1461.1758      1222.3589      2391.9697      0.0028621797 
  21175000   298.57248     -1468.646       1271.9861      2473.3036      11.627275    
  21180000   308.22024     -1449.7525      1257.2046      2563.6901     -7.7616547    
  21185000   302.24567     -1474.8995      1270.7456      2498.6569     -1.5907319    
  21190000   300.5957      -1505.0271      1272.4002      2455.4292      11.573974    
  21195000   294.11578     -1494.5602      1277.9057      2413.4554      6.8694429    
  21200000   302.83238     -1509.8801      1250.6654      2448.8427     -9.4547473    
  21205000   295.6581      -1487.4347      1243.9093      2400.3764      8.9862006    
  21210000   298.01849     -1473.8177      1248.3344      2439.5262      7.9259546    
  21215000   300.70397     -1485.2143      1272.4678      2476.2777      7.4014722    
  21220000   297.04576     -1495.628       1221.8064      2382.4894     -7.4684969    
  21225000   306.13247     -1488.5687      1259.5689      2508.5684      11.143647    
  21230000   301.06939     -1493.1968      1255.6246      2454.7197     -11.452151    
  21235000   297.99797     -1495.2978      1277.7203      2447.2485      20.039845    
  21240000   298.0298      -1488.5315      1250.9212      2427.5004     -9.8123097    
  21245000   299.02988     -1517.9012      1291.8759      2448.0285      7.9678424    
  21250000   302.33338     -1510.5404      1281.8271      2474.8818      10.657769    
  21255000   294.31174     -1498.9531      1235.9834      2368.8925     -12.095764    
  21260000   295.44552     -1462.9843      1235.3148      2414.3313      8.7192238    
  21265000   307.31517     -1483.8781      1302.4787      2566.745       34.075538    
  21270000   301.77697     -1476.4563      1309.2807      2531.4438      13.24963     
  21275000   298.59079     -1450.7615      1274.8569      2494.2227      0.47230313   
  21280000   297.53923     -1452.8504      1290.77        2498.6434      18.047099    
  21285000   297.01798     -1461.5305      1265.6402      2460.1722      26.60214     
  21290000   296.59461     -1423.4273      1260.6113      2489.4606      9.4050625    
  21295000   295.81367     -1410.7676      1271.1242      2505.6498      6.4095668    
  21300000   300.07314     -1413.6207      1235.6814      2505.4438      8.5818188    
  21305000   299.45932     -1412.7199      1227.245       2492.4191      4.4262193    
  21310000   291.51543     -1414.7352      1284.0063      2476.1275      19.804062    
  21315000   303.698       -1446.8198      1259.515       2528.4934     -6.5812       
  21320000   303.91222     -1427.6323      1281.6832      2571.7647      17.271697    
  21325000   304.0918      -1474.8071      1278.7671      2523.2797      27.010491    
  21330000   301.80678     -1465.4081      1293.9154      2527.3934      1.1977576    
  21335000   296.59075     -1451.4609      1259.3293      2460.1104      6.0328281    
  21340000   292.29992     -1449.3902      1315.1665      2479.6479      6.4072721    
  21345000   303.83741     -1468.254       1256.5346      2505.3255      10.840564    
  21350000   302.07698     -1457.1765      1284.1216      2528.2474     -4.2317968    
  21355000   294.62504     -1469.9638      1285.3852      2450.0853      9.973196     
  21360000   293.25678     -1441.3675      1269.4983      2450.5592      10.573504    
  21365000   292.2427      -1446.6991      1275.7395      2442.4004      3.999512     
  21370000   303.90813     -1440.7886      1265.009       2541.8976      5.1084141    
  21375000   296.71238     -1472.1756      1270.1102      2451.2643     -7.3296582    
  21380000   306.58944     -1495.5305      1268.6285      2514.7526      11.613277    
  21385000   298.73755     -1475.8334      1325.4775      2521.0837      5.5202211    
  21390000   306.81784     -1445.7506      1274.3456      2572.2921      19.978404    
  21395000   298.82385     -1426.4053      1216.4238      2462.2298      2.0916348    
  21400000   301.65146     -1448.8836      1229.1845      2477.798       8.2143307    
  21405000   301.34234     -1452.2009      1235.181       2477.7129      1.8399038    
  21410000   300.7524      -1469.1851      1208.1384      2428.4105      8.1767681    
  21415000   300.07215     -1459.2426      1300.9071      2525.0387      10.129177    
  21420000   301.87903     -1408.0743      1274.4392      2565.8971      10.539735    
  21425000   303.51986     -1443.4619      1302.6647      2573.408       1.954554     
  21430000   298.35812     -1450.5186      1273.8054      2491.3334      9.6814679    
  21435000   298.17162     -1429.2234      1257.9083      2495.0638      2.1638842    
  21440000   300.24301     -1448.274       1288.9014      2525.5295     -6.0655018    
  21445000   295.38974     -1439.488       1227.5705      2429.5846     -16.004141    
  21450000   306.08584     -1444.8312      1277.9387      2570.2587      1.3655978    
  21455000   298.70435     -1475.148       1295.3771      2491.3719      7.182944     
  21460000   297.11505     -1402.9324      1249.7005      2503.6987      9.6350052    
  21465000   299.45554     -1469.2817      1238.4457      2447.0244     -6.1132736    
  21470000   298.06101     -1465.7825      1260.8894      2460.4966     -5.9115473    
  21475000   291.71599     -1493.2586      1279.0177      2394.409       6.4383105    
  21480000   301.34811     -1497.6017      1296.2064      2493.3891      10.251194    
  21485000   304.09147     -1475.9857      1254.6113      2497.9423     -7.494466     
  21490000   303.87575     -1496.0862      1247.2408      2468.5423      14.358148    
  21495000   296.17195     -1475.9162      1278.4377      2451.0184     -4.8963808    
  21500000   306.19601     -1467.1693      1264.5995      2535.5667      15.113265    
  21505000   302.21108     -1421.5776      1221.0754      2501.9992      5.708119     
  21510000   293.6148      -1463.8644      1256.7509      2418.5162      15.585873    
  21515000   300.41689     -1423.0391      1242.5975      2506.0154      8.6653037    
  21520000   297.24073     -1466.6306      1230.8433      2422.2671      5.2610943    
  21525000   295.44766     -1447.1722      1273.2729      2468.1207     -1.8807651    
  21530000   298.1051      -1412.7095      1295.522       2548.5966      9.2457248    
  21535000   300.43042     -1402.4374      1277.2648      2561.4054     -5.3486489    
  21540000   299.54065     -1401.2679      1245.6218      2522.9753     -2.6891489    
  21545000   289.56607     -1418.8222      1257.6633      2428.2654      14.15362     
  21550000   301.10431     -1482.7605      1245.6982      2455.5419     -11.717285    
  21555000   293.45616     -1425.7774      1281.1165      2479.5503      4.0279401    
  21560000   300.41419     -1487.8066      1276.6         2475.2263      3.9358727    
  21565000   301.97826     -1459.7173      1321.3108      2562.013       11.813276    
  21570000   308.21021     -1431.397       1290.3073      2615.0585      20.810427    
  21575000   303.86459     -1426.3492      1308.3475      2599.2862      24.334095    
  21580000   302.62642     -1413.462       1249.3531      2542.1067      13.106199    
  21585000   290.6346      -1392.1915      1306.6066      2513.3947     -11.519427    
  21590000   292.33779     -1411.4954      1284.661       2487.3759      15.864247    
  21595000   297.02868     -1452.301       1252.5864      2456.4437      7.2097322    
  21600000   299.80706     -1437.1539      1253.414       2497.2637     -1.9532873    
  21605000   302.42349     -1466.8499      1252.8339      2490.385       3.8513223    
  21610000   299.01111     -1493.4517      1292.5826      2473.0169     -5.120394     
  21615000   300.49182     -1509.9367      1271.4671      2448.6574      5.7518063    
  21620000   307.18486     -1535.8457      1226.9704      2438.1038     -5.6998872    
  21625000   297.8082      -1517.7585      1283.6118      2428.9823      6.9143768    
  21630000   297.27287     -1523.4545      1315.6174      2450.5048      3.6534789    
  21635000   300.29603     -1542.8743      1309.588       2452.0899      23.097952    
  21640000   305.7088      -1511.8682      1285.1828      2507.0943     -10.655662    
  21645000   299.56228     -1539.8824      1270.3278      2409.2601      18.931451    
  21650000   300.73279     -1491.0827      1227.9977      2426.1969      25.033109    
  21655000   296.17389     -1455.0129      1280.0632      2473.5647      17.256114    
  21660000   299.62963     -1466.8706      1272.4718      2485.0183      15.666868    
  21665000   295.1018      -1460.9698      1276.6978      2454.6553      18.298324    
  21670000   295.61571     -1469.3104      1257.7887      2432.0012     -11.694208    
  21675000   302.06015     -1488.915       1251.6751      2463.9118     -4.6730664    
  21680000   300.50133     -1493.3685      1274.6866      2468.5303      9.1979331    
  21685000   299.37932     -1468.9879      1281.5621      2489.7529      21.06816     
  21690000   304.72936     -1485.8224      1305.441       2544.6396      0.99525468   
  21695000   300.16815     -1502.7095      1242.2889      2423.8121      4.3103018    
  21700000   310.237       -1466.0077      1260.2706      2568.5356      10.462134    
  21705000   303.4958      -1485.8033      1277.2462      2505.4329      17.770919    
  21710000   298.68632     -1484.1044      1287.6176      2474.4947      5.4569284    
  21715000   304.20055     -1479.3656      1254.1564      2495.0829      19.586027    
  21720000   307.59358     -1498.046       1253.4147      2506.0029      9.9776499    
  21725000   304.70662     -1496.8758      1228.2548      2456.1967      2.4517312    
  21730000   302.74279     -1535.7909      1265.6984      2437.1637      0.28231096   
  21735000   299.52355     -1521.783       1255.8857      2412.5711      5.5760391    
  21740000   296.07627     -1550.5491      1234.4334      2331.5256     -5.5313516    
  21745000   299.5822      -1542.161       1246.4963      2383.3282      9.5037682    
  21750000   301.98297     -1566.5557      1290.2166      2424.1225      11.0033      
  21755000   303.52632     -1525.2854      1237.3366      2426.3142      3.9401188    
  21760000   305.42754     -1489.834       1296.9738      2538.4043      22.452691    
  21765000   302.81499     -1441.424       1280.7765      2547.2543      0.95695636   
  21770000   300.75493     -1462.7335      1277.3265      2504.0729      3.2397048    
  21775000   303.27577     -1481.2291      1295.7459      2526.5391      10.707342    
  21780000   302.13175     -1458.2775      1276.8664      2520.381       7.0047753    
  21785000   305.56655     -1434.398       1236.0032      2534.1127     -1.9959764    
  21790000   303.70213     -1384.4657      1266.2889      2597.6583      16.973891    
  21795000   303.7797      -1418.1447      1254.0675      2552.4515      9.0497452    
  21800000   298.9706      -1467.4642      1249.0004      2455.0599      12.693812    
  21805000   300.16086     -1439.7879      1244.4992      2488.8788      13.01549     
  21810000   298.386       -1414.7332      1305.235       2558.7978      0.77941079   
  21815000   299.04064     -1454.6568      1301.5166      2521.0098     -11.595869    
  21820000   307.27364     -1422.5961      1308.9377      2634.1146     -10.2673      
  21825000   305.51618     -1400.2779      1278.2221      2610.0013      25.99117     
  21830000   302.25494     -1452.143       1291.1284      2541.8792      17.658787    
  21835000   299.67174     -1459.8591      1268.8873      2488.8218      10.948123    
  21840000   308.0349      -1408.2437      1238.2596      2584.5965      6.5186307    
  21845000   295.3637      -1414.6474      1271.7778      2498.3997     -3.704959     
  21850000   295.00784     -1426.475       1247.8352      2459.4472      5.6947284    
  21855000   299.75571     -1459.581       1288.6955      2509.659       6.574814     
  21860000   291.21647     -1432.1465      1276.3038      2448.3402      9.2898353    
  21865000   303.65111     -1424.903       1244.1448      2534.6206      4.3134317    
  21870000   295.71658     -1433.1118      1240.9604      2452.2736      16.394945    
  21875000   290.49705     -1402.6         1233.6614      2428.8109      1.9950592    
  21880000   294.08476     -1409.6232      1274.6372      2494.8465     -5.6075036    
  21885000   307.45688     -1453.7014      1292.9846      2588.6949      14.239239    
  21890000   300.80608     -1440.536       1285.3471      2534.7485      6.9504253    
  21895000   294.13711     -1420.2697      1277.7344      2487.7653      11.487578    
  21900000   297.82582     -1467.8057      1244.185       2439.6659      12.714367    
  21905000   309.08064     -1489.208       1246.8139      2521.5379      2.654267     
  21910000   302.04629     -1484.7094      1284.1761      2500.4945      2.4982168    
  21915000   299.40072     -1492.6815      1262.1097      2446.7982     -4.6182275    
  21920000   303.47328     -1499.0984      1231.1665      2445.8567      1.3132492    
  21925000   295.67736     -1497.717       1296.9809      2443.3381      2.44535      
  21930000   297.32771     -1473.4753      1306.6429      2491.9999      1.0596991    
  21935000   302.43237     -1473.6458      1303.0572      2533.8917      2.3272996    
  21940000   302.79118     -1502.7161      1322.4141      2527.387      -4.1499088    
  21945000   298.09266     -1435.8772      1228.9291      2458.7247      5.5467042    
  21950000   298.23052     -1455.3963      1227.8102      2439.3195      5.5420767    
  21955000   295.95522     -1486.8736      1326.2176      2485.9029      13.094421    
  21960000   292.44927     -1493.1414      1270.2866      2392.3524     -6.4097647    
  21965000   301.42691     -1456.6022      1270.3298      2509.2166     -0.19711152   
  21970000   297.95464     -1485.902       1298.0104      2476.5469      6.4381764    
  21975000   302.39739     -1479.6341      1264.3748      2488.9082     -16.046784    
  21980000   295.57687     -1489.1267      1259.593       2413.6419     -10.95618     
  21985000   304.80398     -1465.0799      1247.1316      2507.74        5.5452224    
  21990000   298.06252     -1455.4466      1268.0388      2477.9954      3.185504     
  21995000   296.5891      -1490.0381      1242.6017      2404.7908     -4.0874937    
  22000000   297.55112     -1472.1362      1216.7193      2405.4132      9.1121191    
  22005000   294.949       -1460.9939      1248.3472      2424.9141     -2.6124853    
  22010000   297.39881     -1485.2468      1254.513       2428.7342      15.215581    
  22015000   297.6597      -1500.662       1277.212       2438.3511      5.2363165    
  22020000   298.08311     -1467.5252      1244.8564      2442.9186      5.5556459    
  22025000   297.56254     -1462.6372      1300.8801      2499.1752     -9.6396245    
  22030000   301.37994     -1454.2592      1266.7683      2507.5782      9.2806462    
  22035000   299.91243     -1469.1603      1290.317       2503.1026      15.499189    
  22040000   301.65936     -1455.9789      1249.3842      2490.9731      2.5783261    
  22045000   295.18218     -1477.6648      1297.909       2459.8902     -5.9675973    
  22050000   295.03791     -1469.3159      1275.0382      2444.0782      31.017131    
  22055000   295.07388     -1465.2741      1255.266       2428.6695     -13.348914    
  22060000   303.75011     -1461.7403      1334.0073      2588.5311      9.0782957    
  22065000   301.90864     -1447.7964      1232.5696      2484.5702      13.393598    
  22070000   306.80904     -1450.16        1291.5842      2585.0426     -0.96778802   
  22075000   306.27565     -1472.3775      1252.1763      2518.6474     -2.1752189    
  22080000   301.7027      -1446.5661      1319.4793      2570.8685      21.835264    
  22085000   299.2526      -1443.9756      1286.6288      2518.6986      28.266201    
  22090000   303.66596     -1480.3194      1276.1132      2511.3054      0.56305757   
  22095000   290.85652     -1456.565       1287.5254      2431.9246      14.391435    
  22100000   302.14772     -1497.3781      1253.6903      2458.247       1.7793048    
  22105000   299.25102     -1474.15        1255.2047      2457.086      -11.326678    
  22110000   295.48053     -1481.8218      1225.2234      2385.7156     -6.2917416    
  22115000   298.08491     -1467.9274      1266.112       2463.7882      9.6849204    
  22120000   298.485       -1455.8442      1245.979       2459.3162      4.7287961    
  22125000   302.65625     -1434.1272      1257.0106      2529.3658      10.41879     
  22130000   296.9568      -1452.769       1261.1432      2463.8897      18.281801    
  22135000   298.42813     -1433.7958      1275.9541      2510.831       2.65053      
  22140000   311.89326     -1423.9447      1255.7183      2620.8573     -9.2079843    
  22145000   297.43847     -1452.112       1251.7823      2459.493       10.746632    
  22150000   294.65208     -1442.7281      1214.6714      2406.849      -7.231139     
  22155000   310.30535     -1416.5073      1297.3528      2655.7294      15.780599    
  22160000   303.32483     -1457.4585      1225.3992      2480.4018     -8.9477969    
  22165000   299.09968     -1463.2671      1265.3104      2476.7214     -7.5859622    
  22170000   296.90066     -1465.6336      1249.4721      2438.8519      0.070430414  
  22175000   301.77651     -1501.2661      1266.1727      2463.5219     -9.7358192    
  22180000   297.75475     -1470.3722      1245.6657      2437.9446      7.1565806    
  22185000   299.26953     -1502.6206      1262.547       2436.1233      8.1298012    
  22190000   304.18644     -1520.4677      1240.149       2439.8474      17.813647    
  22195000   301.64162     -1525.2323      1257.8275      2430.0043      14.407224    
  22200000   295.56813     -1507.8842      1284.3015      2419.5147      8.5191607    
  22205000   298.24561     -1517.4348      1285.8062      2435.412       4.4019326    
  22210000   296.30263     -1486.7422      1233.3924      2396.3158      16.221567    
  22215000   305.74174     -1540.3812      1238.3987      2432.0916      5.8107565    
  22220000   295.06128     -1537.1712      1336.9287      2438.3223      6.126822     
  22225000   300.95632     -1513.7499      1311.1567      2488.6878      1.1218585    
  22230000   306.37519     -1525.0906      1270.1692      2484.8173      3.574311     
  22235000   300.57103     -1474.9123      1259.2872      2472.2104      8.4516204    
  22240000   303.81999     -1488.6326      1274.7301      2502.9866     -9.9714359    
  22245000   293.89882     -1480.5188      1250.8153      2398.4662      16.241096    
  22250000   292.89296     -1458.9833      1315.0465      2475.238       10.076095    
  22255000   301.21934     -1463.7605      1238.8813      2468.7538      1.2114488    
  22260000   292.46716     -1433.5258      1304.1469      2485.9883      6.2441687    
  22265000   302.42078     -1453.7497      1269.8297      2520.4567      3.4956479    
  22270000   299.80479     -1469.4651      1233.1654      2444.6836      0.26328443   
  22275000   294.76231     -1488.7437      1256.0449      2403.1926      15.573238    
  22280000   295.11567     -1513.9404      1232.5401      2357.651       2.4218146    
  22285000   293.64461     -1479.5796      1271.0098      2417.3265     -6.6814746    
  22290000   299.487       -1509.8645      1255.1458      2423.4229      15.244928    
  22295000   295.59417     -1470.9544      1308.8508      2481.2266      7.4313637    
  22300000   300.851       -1508.0274      1275.3365      2457.6482      4.7964225    
  22305000   302.48553     -1485.0692      1203.8062      2423.6928      15.182624    
  22310000   297.05116     -1497.1259      1290.4699      2449.7033     -2.391806     
  22315000   289.16071     -1479.4868      1254.3267      2360.6395     -8.1123767    
  22320000   303.69848     -1451.6366      1268.566       2532.7318     -6.106678     
  22325000   296.81758     -1465.249       1272.6433      2461.6648     -4.7459583    
  22330000   301.95235     -1481.7501      1268.819       2487.2568      6.5475119    
  22335000   303.73246     -1482.8219      1326.9179      2560.2023     -0.55168158   
  22340000   303.85267     -1466.4905      1258.879       2509.5698      14.358885    
  22345000   298.72292     -1491.0034      1253.4826      2433.7881      6.6362498    
  22350000   300.09486     -1499.0099      1268.1106      2452.678       14.307824    
  22355000   294.73292     -1479.8159      1253.6419      2409.4546      5.0836911    
  22360000   297.39167     -1488.1589      1240.3878      2411.6331      8.7411332    
  22365000   294.98103     -1458.0381      1287.2803      2467.0895     -0.11472965   
  22370000   298.18133     -1471.367       1290.4677      2485.5664     -3.0806848    
  22375000   297.55158     -1406.7175      1248.7487      2502.8654     -3.3952668    
  22380000   300.41275     -1420.9813      1312.1829      2577.6216     -3.6330372    
  22385000   307.91384     -1397.9453      1250.5298      2606.0825     -1.2490043    
  22390000   299.72021     -1427.7077      1240.0829      2492.6023      15.674236    
  22395000   297.50477     -1404.9198      1264.2595      2519.7553     -4.4076691    
  22400000   299.41933     -1434.9126      1259.8961      2502.5199      0.44450895   
  22405000   295.23736     -1415.1804      1311.8382      2536.7972     -7.0860515    
  22410000   294.8502      -1397.0353      1299.0848      2538.7269      17.161475    
  22415000   300.61368     -1457.171       1271.0841      2502.1299      8.3569983    
  22420000   291.61459     -1455.8382      1229.5086      2381.4135     -6.5109952    
  22425000   292.1102      -1438.7151      1235.0789      2408.5388     -0.22505973   
  22430000   293.29105     -1448.7368      1289.4261      2463.4241      5.3233979    
  22435000   298.98037     -1494.5229      1240.6023      2419.6905      10.437652    
  22440000   301.49879     -1503.4034      1285.5327      2478.2611      7.0191877    
  22445000   297.95259     -1493.28        1239.3697      2410.5099      10.084885    
  22450000   302.70177     -1459.1328      1272.458       2520.2146      16.437252    
  22455000   297.4634      -1472.8425      1261.6336      2448.8368      2.1109003    
  22460000   304.64968     -1493.6951      1230.3455      2460.9589     -1.2004565    
  22465000   301.44842     -1490.1373      1269.4939      2475.0381     -6.9610843    
  22470000   297.15882     -1474.2948      1265.2794      2448.3066      2.6197012    
  22475000   298.82556     -1438.9999      1232.4774      2465.7042      2.3481195    
  22480000   302.14954     -1457.0891      1243.3516      2488.2136     -14.523904    
  22485000   296.3898      -1477.6356      1223.125       2395.9346     -2.8752554    
  22490000   299.44368     -1477.964       1308.6894      2508.4796     -10.787428    
  22495000   302.16318     -1450.5405      1215.9295      2467.4622      5.2066512    
  22500000   299.33772     -1442.8979      1286.685       2520.5938     -12.312804    
  22505000   301.60447     -1427.0375      1268.7373      2538.7767      3.7407862    
  22510000   302.63728     -1444.8113      1263.2817      2524.7831      1.6365631    
  22515000   303.40809     -1459.2536      1294.0431      2547.9952      17.96688     
  22520000   303.03955     -1474.5712      1268.7382      2504.077       14.552135    
  22525000   299.78233     -1442.9204      1235.8716      2473.7337     -0.32861495   
  22530000   300.7566      -1445.9892      1258.0122      2501.5178     -15.628048    
  22535000   297.01254     -1489.6315      1257.4011      2423.7835      6.658111     
  22540000   296.73529     -1496.7691      1234.2911      2391.0566      15.113428    
  22545000   302.39127     -1511.5026      1243.928       2436.5382     -0.76115874   
  22550000   308.29576     -1513.1029      1229.1829      2472.9933      12.18362     
  22555000   294.77323     -1523.4764      1291.7659      2404.2785      7.4920414    
  22560000   297.7455      -1513.3052      1273.6762      2422.9393      19.34718     
  22565000   300.49349     -1456.5111      1298.4058      2529.0367     -5.7376599    
  22570000   298.38028     -1473.4994      1270.1907      2464.9361      16.833677    
  22575000   304.90994     -1459.273       1262.6903      2530.0532      19.768648    
  22580000   305.59533     -1493.3173      1272.069       2511.5166      4.8444769    
  22585000   301.14096     -1485.7376      1315.4994      2522.6938     -3.9120548    
  22590000   305.32979     -1443.8431      1255.2155      2541.7627      16.659733    
  22595000   305.76211     -1436.6574      1220.1111      2517.7101      20.58627     
  22600000   294.38952     -1445.3979      1266.646       2453.8058     -12.325968    
  22605000   298.84705     -1468.6586      1260.5492      2464.3095     -9.8206259    
  22610000   302.64408     -1423.6993      1262.2448      2544.9191      5.3189975    
  22615000   307.35138     -1412.1062      1275.7813      2612.1434     -9.6990541    
  22620000   296.50696     -1437.7923      1202.4331      2416.1336      3.5040466    
  22625000   299.51009     -1484.9015      1263.3657      2456.8122     -9.3184249    
  22630000   296.63201     -1446.4091      1263.3933      2469.5954     -8.9752129    
  22635000   307.42745     -1464.1075      1209.4624      2494.5034      12.028114    
  22640000   296.99197     -1447.7945      1218.7193      2426.7547      31.074123    
  22645000   302.33917     -1411.3735      1315.7842      2608.0575     -7.9500332    
  22650000   290.1735      -1406.4337      1294.1605      2482.5831      23.243464    
  22655000   295.24161     -1449.6022      1283.6348      2474.2101     -9.9339186    
  22660000   296.19604     -1413.9608      1268.9376      2503.6891     -0.31000581   
  22665000   299.11899     -1450.4444      1269.0497      2493.4559      9.3210193    
  22670000   299.93581     -1433.6684      1257.7443      2506.2309      0.7877439    
  22675000   301.9476      -1483.4634      1260.7911      2477.4731     -7.8171323    
  22680000   310.97359     -1446.6502      1258.2983      2592.5077      5.4817768    
  22685000   302.15201     -1460.8356      1227.4706      2468.6082      10.744248    
  22690000   297.65868     -1469.2607      1251.8933      2444.4246      17.532762    
  22695000   297.50475     -1471.4713      1317.0866      2506.0307      6.3555343    
  22700000   297.57093     -1467.9589      1273.6676      2466.716       0.84892951   
  22705000   300.09682     -1498.4325      1295.5858      2480.7481      2.8711479    
  22710000   301.30624     -1456.1615      1264.1785      2502.427      -2.9702341    
  22715000   295.10591     -1458.4541      1277.7857      2458.2955      7.4774431    
  22720000   298.0687      -1454.5014      1260.5556      2471.5127      1.6353543    
  22725000   299.86827     -1454.7775      1237.4424      2464.216       4.2432917    
  22730000   305.09293     -1445.8616      1235.2701      2517.6808      0.88079004   
  22735000   307.28837     -1469.0831      1298.6708      2577.4924      14.505068    
  22740000   303.46742     -1455.4981      1263.1489      2521.387       17.821201    
  22745000   308.62651     -1478.895       1229.0086      2509.9846      11.955846    
  22750000   297.82772     -1487.0748      1228.7832      2405.012       6.6394495    
  22755000   299.22365     -1459.2716      1343.5066      2560.0215     -12.809158    
  22760000   303.07169     -1470.2222      1251.8474      2491.8227      4.9048536    
  22765000   299.22155     -1480.1672      1286.9812      2482.5817      11.256989    
  22770000   302.69628     -1457.1067      1222.8331      2472.5668      14.390574    
  22775000   297.4917      -1501.7755      1262.5094      2421.0327      13.120283    
  22780000   303.05696     -1487.6581      1214.6159      2437.0235     -3.6278538    
  22785000   307.26471     -1468.1224      1287.3525      2566.9234     -6.7417534    
  22790000   306.09954     -1485.8805      1232.0916      2483.4848      13.139998    
  22795000   299.38777     -1482.0794      1231.9426      2427.1174      9.1058791    
  22800000   300.24349     -1555.3461      1262.0561      2391.6165      3.6222746    
  22805000   300.11732     -1565.921       1244.799       2362.6561      7.3982013    
  22810000   295.45333     -1559.3259      1232.2357      2314.9806      0.89486307   
  22815000   298.04583     -1559.2989      1244.1715      2350.1267      11.629289    
  22820000   297.8304      -1562.0946      1303.5377      2404.7707      8.1466399    
  22825000   303.4795      -1510.022       1253.3363      2457.1585      9.8431283    
  22830000   295.27266     -1552.4885      1254.2666      2342.2332     -5.9343503    
  22835000   295.97667     -1506.7518      1269.056       2409.0549      8.8994094    
  22840000   299.1268      -1497.4446      1259.0871      2436.563      -8.4261161    
  22845000   302.8019      -1469.5543      1282.5949      2520.8255     -5.5590077    
  22850000   296.06594     -1456.9971      1259.4121      2449.964      -8.3544337    
  22855000   303.4082      -1446.7686      1298.9051      2565.3432      18.797795    
  22860000   305.55491     -1447.3572      1237.4202      2522.4665     -3.0487019    
  22865000   299.91579     -1455.0811      1246.9059      2473.8008      2.6020648    
  22870000   300.16741     -1460.47        1290.459       2514.2151      10.666033    
  22875000   301.82528     -1471.9052      1267.9061      2495.0523      18.234628    
  22880000   297.45261     -1459.4592      1252.2435      2452.7335      17.186733    
  22885000   300.07362     -1494.7737      1287.922       2476.5357      0.48211669   
  22890000   297.69541     -1477.9992      1211.8717      2395.993       0.53397522   
  22895000   301.13909     -1508.0806      1241.5729      2426.4076      26.752748    
  22900000   302.40008     -1471.5217      1274.4855      2507.1554      15.586909    
  22905000   293.19289     -1494.6777      1233.17        2360.3493      10.444585    
  22910000   298.989       -1450.141       1247.8781      2471.4254      15.139526    
  22915000   303.33198     -1476.1112      1294.9475      2531.3614      0.10195146   
  22920000   295.85338     -1437.6967      1279.9251      2487.8766     -3.9570614    
  22925000   294.49942     -1423.5869      1271.5981      2481.5517      11.267325    
  22930000   303.68749     -1430.5464      1220.2293      2505.3871      4.0971848    
  22935000   308.3134      -1453.4073      1220.8138      2524.4775      1.951993     
  22940000   301.51017     -1451.7961      1246.4052      2490.8427      23.527084    
  22945000   303.5107      -1467.7923      1240.2097      2486.5406      13.36666     
  22950000   292.61159     -1483.9753      1311.4672      2444.1505      12.336252    
  22955000   301.00641     -1460.2748      1200.0258      2431.4797     -4.0061074    
  22960000   299.72863     -1461.7826      1233.7177      2452.2373      12.583098    
  22965000   299.56781     -1454.8217      1312.7204      2536.7629      3.5316885    
  22970000   297.60191     -1456.729       1259.2512      2463.8065     -14.684625    
  22975000   296.18898     -1464.724       1284.293       2468.2182      9.5234639    
  22980000   302.61874     -1450.7579      1246.5899      2501.979      -4.2810198    
  22985000   298.70035     -1459.2727      1263.6975      2475.5319      2.5545621    
  22990000   295.56961     -1466.3011      1298.5442      2475.3537      3.6848456    
  22995000   295.18839     -1447.9046      1232.9348      2424.7318     -4.0385454    
  23000000   299.7659      -1470.4263      1274.2085      2484.4178      14.653717    
  23005000   297.11659     -1510.4811      1225.2914      2371.7547      25.223849    
  23010000   299.688       -1485.0096      1276.5015      2471.4308      10.55622     
  23015000   297.61354     -1464.3765      1296.8508      2493.8625      0.89072657   
  23020000   304.9891      -1498.3018      1268.2768      2497.3187     -1.1333656    
  23025000   305.95925     -1468.0718      1206.2704      2474.2178      14.175159    
  23030000   295.62707     -1491.3325      1243.99        2396.282       8.4727947    
  23035000   298.26116     -1508.9358      1240.1461      2398.3899      11.999937    
  23040000   304.79537     -1512.3727      1298.7108      2511.9493     -11.719547    
  23045000   301.51364     -1496.3071      1291.5859      2491.5435     -6.4994727    
  23050000   297.98068     -1476.61        1258.7674      2446.8287      20.542718    
  23055000   302.49951     -1472.6956      1249.5675      2481.9526      14.82097     
  23060000   308.22304     -1472.3881      1288.704       2572.5789      22.072103    
  23065000   295.40263     -1523.4377      1282.8232      2401.0029      16.174256    
  23070000   302.02259     -1495.246       1215.0408      2420.6107      15.1412      
  23075000   303.29863     -1442.5571      1305.5643      2575.2341      24.562164    
  23080000   298.41763     -1426.9689      1247.991       2489.6009     -5.2041271    
  23085000   299.4754      -1448.1178      1247.2308      2477.1508      9.709757     
  23090000   291.30623     -1434.9804      1280.2351      2450.2403      10.788645    
  23095000   306.51723     -1450.8788      1249.3941      2539.5243      2.9158301    
  23100000   301.88075     -1462.1103      1266.7991      2504.2364      3.9915925    
  23105000   302.72482     -1482.2367      1260.0621      2484.921       9.4247523    
  23110000   297.59438     -1472.8181      1267.1676      2455.5664     -0.40085069   
  23115000   295.80738     -1439.5123      1257.9081      2463.6327     -4.1812277    
  23120000   301.10354     -1445.4804      1265.7917      2512.9087     -4.5922861    
  23125000   295.82531     -1509.849       1299.883       2435.4311      14.809906    
  23130000   300.50913     -1499.2348      1244.9149      2432.962       11.571923    
  23135000   294.22078     -1480.2754      1279.7678      2430.5412     -0.89255334   
  23140000   298.56559     -1514.2753      1286.3033      2441.93        0.70130325   
  23145000   298.47553     -1466.4491      1244.8933      2447.5409      1.4747137    
  23150000   306.30949     -1516.1713      1261.1537      2484.1335     -7.0344305    
  23155000   298.44313     -1502.9896      1286.2013      2452.0185      8.4316649    
  23160000   292.58736     -1448.4133      1288.7185      2456.7471      3.8429255    
  23165000   299.09558     -1502.4902      1300.9009      2473.0521      3.7937196    
  23170000   299.15558     -1470.1191      1316.4809      2521.5397     -1.2886565    
  23175000   297.41112     -1457.4252      1259.5953      2461.7482     -4.1512194    
  23180000   304.97686     -1458.8186      1296.531       2564.9467      17.804724    
  23185000   294.18373     -1438.1286      1243.3588      2435.9477      5.8883713    
  23190000   304.33271     -1477.1213      1296.509       2540.8617      7.8957082    
  23195000   298.81852     -1449.1013      1262.838       2485.9004      8.0367305    
  23200000   292.25156     -1459.4172      1307.5603      2461.5823     -5.7768911    
  23205000   296.42392     -1465.6083      1297.9082      2483.0501      3.4991635    
  23210000   301.72479     -1484.3536      1276.1457      2489.9449      10.380353    
  23215000   297.21581     -1507.2217      1273.2437      2423.8536     -10.758778    
  23220000   298.00671     -1485.3555      1275.8449      2455.3936     -8.3460057    
  23225000   301.53911     -1479.0078      1246.3721      2463.8567     -9.5365915    
  23230000   297.81535     -1477.1464      1259.6225      2445.6691     -8.3035257    
  23235000   295.1955      -1490.3235      1263.342       2412.7837      14.360992    
  23240000   306.31964     -1500.5256      1278.1522      2516.8685      22.155159    
  23245000   302.05879     -1480.2159      1258.1801      2479.1038     -20.383852    
  23250000   300.56567     -1498.0952      1239.7896      2429.4819      13.119       
  23255000   312.1222      -1530.1099      1234.5371      2495.5581      8.1861151    
  23260000   305.94129     -1509.7823      1299.2774      2525.3538      34.975047    
  23265000   305.62418     -1470.1974      1253.4782      2516.3037      15.324296    
  23270000   305.18024     -1492.1856      1273.5489      2510.4163     -5.1024253    
  23275000   294.79726     -1491.5593      1301.8227      2446.4674      16.961689    
  23280000   304.94142     -1503.6919      1243.9444      2467.1698     -12.940221    
  23285000   303.68298     -1505.7165      1280.536       2490.4833      7.0555152    
  23290000   307.39634     -1539.5304      1285.8172      2495.157      -11.176312    
  23295000   303.34098     -1536.7457      1229.408       2405.2677     -1.1730864    
  23300000   299.66087     -1467.4163      1226.8101      2439.0902      4.4282797    
  23305000   297.62726     -1472.4266      1216.1779      2405.2624      16.160201    
  23310000   305.89398     -1485.2278      1272.2756      2522.4833      13.046199    
  23315000   301.17455     -1462.2335      1192.0127      2423.0116      13.191428    
  23320000   306.28395     -1492.6982      1275.691       2521.9156     -10.143511    
  23325000   295.26038     -1456.1872      1224.7291      2408.8872      10.990012    
  23330000   297.94006     -1479.0803      1227.6085      2412.8364      9.6907738    
  23335000   299.31632     -1465.6268      1274.7303      2485.7188      2.9134782    
  23340000   302.9087      -1448.3749      1269.6194      2529.9845      23.113682    
  23345000   290.13393     -1475.1508      1265.6316      2384.9832     -0.36493119   
  23350000   306.31202     -1471.8458      1232.5301      2499.8581      10.809975    
  23355000   296.81055     -1441.6417      1307.4257      2519.9916      13.731629    
  23360000   310.13631     -1437.8674      1254.509       2590.0138      3.8972398    
  23365000   301.46225     -1452.3815      1209.7341      2453.1577      17.10696     
  23370000   304.16887     -1432.9561      1272.1503      2559.2031     -1.276793     
  23375000   293.14972     -1433.9965      1257.4701      2444.9445      19.809919    
  23380000   303.10671     -1473.5101      1266.217       2503.2174      11.154678    
  23385000   296.68302     -1475.396       1202.9403      2380.6115     -2.859716     
  23390000   308.5147      -1467.7475      1208.5396      2499.6632      10.368557    
  23395000   309.9552      -1468.5392      1241.1082      2544.3217     -2.561865     
  23400000   298.04615     -1478.1179      1336.1435      2523.2825      4.7570289    
  23405000   302.03784     -1474.7171      1273.9171      2500.1523      11.93376     
  23410000   298.59524     -1450.0327      1258.9173      2479.0517      1.7763694    
  23415000   296.38388     -1453.7247      1244.1247      2440.7922      14.872531    
  23420000   297.79455     -1447.5286      1257.7831      2473.2615     -0.83311374   
  23425000   298.17027     -1446.0243      1300.1453      2520.4879      0.42502832   
  23430000   307.27886     -1476.5655      1275.3723      2546.6266      6.8964131    
  23435000   297.86612     -1454.9669      1294.9166      2503.5967      6.0573932    
  23440000   299.60996     -1452.2091      1255.1127      2482.1447      23.309683    
  23445000   303.64001     -1466.8521      1260.6579      2509.0854     -4.6109797    
  23450000   299.37679     -1464.2153      1263.3493      2476.29       -7.9796314    
  23455000   292.33512     -1500.0033      1311.808       2425.9912      17.671835    
  23460000   298.04863     -1471.336       1304.0077      2497.9508      22.008787    
  23465000   301.99021     -1463.0056      1233.7046      2471.2253      13.495844    
  23470000   308.5776      -1498.0254      1209.3939      2470.8021     -0.98365863   
  23475000   304.55538     -1477.7538      1252.0933      2497.8047     -6.1483098    
  23480000   308.55559     -1450.6435      1253.3821      2561.9754      6.2673113    
  23485000   300.33072     -1502.3715      1321.6523      2504.9673     -3.9494996    
  23490000   305.52636     -1493.1828      1272.1407      2511.1061      6.8421017    
  23495000   297.34304     -1467.0367      1248.3958      2440.3285      5.3453043    
  23500000   304.59004     -1476.4649      1232.5032      2479.8135      0.19569307   
  23505000   305.07771     -1473.2479      1234.5791      2489.4672      10.013423    
  23510000   299.78659     -1436.5282      1231.5483      2475.8407      6.4101426    
  23515000   300.81976     -1436.0211      1230.7344      2484.773       1.7877479    
  23520000   301.61052     -1467.8472      1205.0375      2434.3213      3.7470148    
  23525000   300.83226     -1480.8251      1216.5364      2425.8827      10.255196    
  23530000   300.83376     -1479.1528      1272.2922      2483.3243     -4.7594533    
  23535000   299.85739     -1459.8813      1263.2404      2484.8129     -9.3507463    
  23540000   296.02533     -1497.3593      1232.3254      2382.1519      11.713234    
  23545000   297.79335     -1472.0793      1246.6058      2437.5227      8.1733423    
  23550000   303.01675     -1484.8979      1274.726       2499.5342      5.9940717    
  23555000   303.47037     -1486.8064      1270.1161      2497.0722     -6.7473983    
  23560000   305.34092     -1404.6409      1244.8162      2570.6651      6.5627539    
  23565000   297.03027     -1426.5179      1289.136       2518.7905      3.9977062    
  23570000   306.13292     -1421.6048      1255.1577      2571.1252      19.738784    
  23575000   293.45663     -1453.4176      1272.2888      2443.0866      6.8952467    
  23580000   306.84601     -1441.1019      1231.0949      2533.942       15.533318    
  23585000   305.12724     -1443.3671      1286.1821      2571.394       4.4328838    
  23590000   299.52029     -1452.9512      1296.7003      2522.1884      12.096065    
  23595000   298.3147      -1422.3947      1296.6683      2541.932      -2.454815     
  23600000   297.32449     -1420.2243      1288.5756      2527.1548      27.132544    
  23605000   300.40565     -1446.1359      1252.0596      2492.2803      4.824495     
  23610000   300.97128     -1426.5114      1205.8037      2470.7069      21.753942    
  23615000   296.31403     -1468.1383      1307.5751      2489.2044      12.273191    
  23620000   299.22588     -1452.1076      1237.3438      2461.0427      8.8993931    
  23625000   304.40038     -1457.1533      1321.5174      2586.4432      5.237311     
  23630000   303.04196     -1449.969       1265.5753      2525.5378     -8.5413954    
  23635000   291.96249     -1465.3386      1239.2088      2384.7243      3.6681448    
  23640000   301.15165     -1412.5348      1217.9143      2498.4072      15.578273    
  23645000   295.01463     -1423.5708      1234.8594      2449.4363      8.9331513    
  23650000   298.0785      -1387.7046      1250.1168      2527.9584     -2.0513899    
  23655000   294.89884     -1418.8411      1258.1418      2476.413      -12.218389    
  23660000   297.79023     -1463.338       1296.6391      2496.2695     -9.4601879    
  23665000   301.44215     -1495.2381      1322.0295      2522.4168     -0.35737941   
  23670000   313.33526     -1486.2111      1251.7846      2567.5523      2.6446693    
  23675000   294.8262      -1467.4578      1272.5439      2441.5488      1.9592815    
  23680000   297.68195     -1477.294       1295.8884      2480.5945      1.0387426    
  23685000   298.96391     -1435.5615      1250.2616      2488.164       4.8105234    
  23690000   299.84898     -1451.2057      1247.9608      2478.1337      11.114169    
  23695000   306.56361     -1404.5844      1222.4442      2559.2835     -6.636485     
  23700000   301.1493      -1488.7082      1270.5875      2474.8859     -2.1355248    
  23705000   297.08882     -1456.2559      1257.33        2457.7701     -2.3721823    
  23710000   300.43118     -1423.9142      1251.0962      2513.7668      19.903231    
  23715000   300.8754      -1443.9651      1236.0762      2482.6683      13.590444    
  23720000   303.02751     -1458.4039      1252.2985      2503.697      -4.4134595    
  23725000   299.89301     -1444.7566      1286.8874      2523.9031      0.1452101    
  23730000   297.49438     -1449.5271      1235.1895      2445.985       14.250044    
  23735000   303.65521     -1433.9416      1274.0966      2555.5705      8.7872632    
  23740000   296.12524     -1442.1963      1231.4666      2437.3496      0.020330812  
  23745000   296.73821     -1391.8699      1296.6859      2558.3767      10.699336    
  23750000   299.13316     -1397.7527      1234.0995      2511.3242      17.487764    
  23755000   298.51482     -1428.1829      1238.1406      2479.4057      5.0939741    
  23760000   299.47414     -1466.2701      1272.5107      2484.2672      8.2578865    
  23765000   299.82598     -1473.5277      1289.8224      2497.4676     -22.506551    
  23770000   299.35342     -1480.7684      1249.0501      2445.2288      10.306506    
  23775000   303.55851     -1463.2229      1208.1018      2459.4297      19.917534    
  23780000   303.55782     -1446.4878      1274.6205      2542.6773     -0.16346995   
  23785000   301.17269     -1470.3138      1311.675       2534.577      -11.155705    
  23790000   305.42178     -1475.9314      1317.0372      2572.3187      20.951303    
  23795000   303.42512     -1442.3013      1286.4584      2557.5151     -2.0301119    
  23800000   299.60542     -1467.9919      1202.9997      2414.2083      2.1386406    
  23805000   306.02693     -1487.3252      1238.3573      2487.6566      8.5813463    
  23810000   298.22168     -1487.9527      1232.249       2411.1229     -7.3362045    
  23815000   296.57051     -1503.8492      1256.0272      2404.2391     -3.7790405    
  23820000   292.95726     -1492.385       1311.5058      2438.8706     -10.306855    
  23825000   293.42091     -1481.2428      1300.1715      2442.8246     -2.6842074    
  23830000   304.28651     -1487.4984      1282.268       2515.8304      6.8975356    
  23835000   300.03194     -1494.6636      1268.8017      2457.1528      14.722025    
  23840000   286.41265     -1501.495       1291.3049      2351.035       11.83664     
  23845000   303.81804     -1513.2175      1249.7271      2453.3811      18.866286    
  23850000   301.18562     -1477.0278      1246.6499      2462.9535      11.396521    
  23855000   303.28251     -1465.3998      1249.8935      2496.5763      6.2075744    
  23860000   298.86885     -1444.9699      1310.1607      2537.8046      5.0897867    
  23865000   308.55565     -1449.463       1263.8604      2573.6348     -5.5309802    
  23870000   295.45916     -1416.888       1319.8632      2545.0982     -8.6406356    
  23875000   307.18119     -1416.422       1205.3858      2535.9101      13.220103    
  23880000   297.33808     -1401.2478      1257.0163      2514.6934      8.1748543    
  23885000   292.99246     -1402.0761      1251.8375      2469.8261      17.206403    
  23890000   300.3701      -1423.7491      1252.6766      2514.9661     -6.0247106    
  23895000   301.88985     -1416.5626      1312.0474      2595.1137      9.7686507    
  23900000   303.29414     -1413.1112      1297.2846      2596.36        9.5214946    
  23905000   297.06984     -1416.3484      1202.2747      2442.4526     -14.829626    
  23910000   294.77541     -1427.0423      1231.7437      2440.71       -14.851295    
  23915000   304.37756     -1464.1937      1299.4881      2557.1695      8.3247996    
  23920000   295.32398     -1441.9773      1244.3034      2443.2401      7.1085946    
  23925000   299.97299     -1442.8388      1257.9711      2497.6198      1.5770754    
  23930000   299.08739     -1450.4376      1313.7852      2537.9157      7.8453788    
  23935000   301.15158     -1442.8609      1242.0823      2492.2484      9.2613167    
  23940000   305.79808     -1476.8901      1252.2336      2509.9215      3.4106872    
  23945000   298.19304     -1434.3057      1288.9604      2521.2251     -7.6852679    
  23950000   305.23214     -1432.0618      1256.6699      2554.1252     -2.1875574    
  23955000   304.38964     -1455.4074      1292.4328      2559.0084     -6.2237664    
  23960000   297.70883     -1444.8746      1250.7389      2468.1047     -13.904347    
  23965000   291.17098     -1438.5117      1279.3741      2444.6385      1.730636     
  23970000   304.9096      -1415.3163      1259.149       2570.4654      2.1098916    
  23975000   300.52483     -1480.4009      1238.4312      2445.4527      10.903486    
  23980000   304.2784      -1431.4152      1229.8644      2519.4375      0.49581314   
  23985000   305.82676     -1419.3239      1279.4373      2594.9478      17.177015    
  23990000   296.1237      -1450.9514      1282.6077      2479.7218     -13.783454    
  23995000   294.97338     -1428.9838      1265.4576      2474.2527      17.817586    
  24000000   302.3307      -1451.7109      1245.2167      2497.077       3.6196507    
  24005000   305.75802     -1491.9399      1305.1979      2547.4776      15.285344    
  24010000   293.51103     -1462.4702      1252.4884      2414.7201     -4.2076766    
  24015000   290.01185     -1465.7247      1263.3501      2391.0361      13.072332    
  24020000   297.76782     -1479.0152      1267.0537      2450.8065     -2.6591144    
  24025000   291.51381     -1452.2409      1274.115       2428.716       18.311451    
  24030000   293.76159     -1443.2332      1202.2129      2385.9222      1.498322     
  24035000   298.08693     -1415.0774      1234.9149      2485.459       7.0854309    
  24040000   299.82462     -1373.296       1236.3411      2544.2059      17.104789    
  24045000   303.88299     -1413.5747      1236.2541      2540.1318      3.7093003    
  24050000   303.34749     -1430.0269      1289.9932      2572.63        3.4927727    
  24055000   297.00413     -1417.8956      1241.1805      2479.2236      8.3649783    
  24060000   297.54491     -1418.6261      1228.3261      2470.4745     -4.0842755    
  24065000   303.59828     -1417.4791      1274.1009      2571.5282      21.118273    
  24070000   298.53792     -1414.2762      1274.5506      2529.929       17.923991    
  24075000   293.67997     -1450.9808      1273.8579      2449.0898      7.2128207    
  24080000   299.32531     -1465.5039      1277.2253      2488.417       6.686429     
  24085000   307.22581     -1462.3428      1242.016       2527.0185      17.914516    
  24090000   296.74021     -1453.4975      1288.5488      2488.6299      13.209042    
  24095000   301.83172     -1432.8999      1291.0876      2557.2968      4.3072182    
  24100000   298.59535     -1429.9174      1248.3086      2488.5593     -0.16594511   
  24105000   298.88929     -1438.8793      1244.6177      2478.5351      15.978621    
  24110000   295.66966     -1455.1103      1233.1405      2422.0356     -5.9951389    
  24115000   299.24981     -1428.6132      1262.8584      2510.2657      0.68525624   
  24120000   297.59314     -1441.6964      1231.7206      2451.2301     -12.46497     
  24125000   302.04461     -1413.4998      1204.9499      2492.4629     -14.844468    
  24130000   297.33078     -1403.0849      1322.4802      2578.2549      6.2384209    
  24135000   300.90976     -1414.9523      1319.6364      2595.5486      17.164241    
  24140000   301.96807     -1414.7184      1265.9128      2551.5227     -3.6596718    
  24145000   289.93166     -1416.2354      1298.8642      2475.3225      6.5660517    
  24150000   294.26383     -1425.4269      1239.4732      2445.4799      9.7599308    
  24155000   297.4618      -1405.1252      1211.896       2466.8022      9.9073822    
  24160000   292.95473     -1387.1669      1255.5056      2488.0658      18.354898    
  24165000   301.80095     -1357.2877      1240.5728      2582.119       6.6150529    
  24170000   292.72493     -1415.8676      1288.0283      2489.8329     -3.4461456    
  24175000   304.52065     -1442.335       1261.9841      2542.8037      20.057845    
  24180000   302.38705     -1445.7525      1262.1291      2520.4516      28.788087    
  24185000   295.24158     -1494.1926      1243.2348      2389.2194     -5.0900416    
  24190000   299.13302     -1488.3844      1267.5326      2454.1243      5.7907891    
  24195000   299.74077     -1480.7887      1277.1503      2476.7725      18.633821    
  24200000   299.05046     -1480.4458      1216.4113      2410.2034     -2.9358709    
  24205000   297.1288      -1475.7747      1258.549       2439.8277      9.8049733    
  24210000   298.38886     -1479.7962      1305.9659      2494.4912     -1.2767138    
  24215000   296.59509     -1452.0655      1279.8988      2480.1142      15.316234    
  24220000   302.46395     -1449.257       1243.7095      2499.2152      12.481183    
  24225000   302.09363     -1448.8988      1279.9343      2532.4867      25.273119    
  24230000   297.7339      -1451.1298      1274.6464      2485.9812      13.177175    
  24235000   301.11657     -1470.2125      1280.3735      2502.8749      6.0089405    
  24240000   299.60598     -1468.7285      1295.8446      2506.3217      23.654558    
  24245000   305.73951     -1450.3889      1272.4602      2556.1255      0.46901143   
  24250000   295.8863      -1438.3825      1238.7062      2446.2663      12.007159    
  24255000   300.45393     -1434.8083      1236.2878      2488.2679     -0.69933836   
  24260000   304.58776     -1405.7483      1233.9173      2551.9239      1.8039394    
  24265000   301.2394      -1430.9444      1310.4497      2573.3176      13.944595    
  24270000   296.81208     -1408.4481      1270.0853      2515.8585     -3.5550105    
  24275000   305.68832     -1460.5383      1279.9199      2552.9781      12.691907    
  24280000   302.71267     -1443.1389      1249.2888      2513.1368      18.950844    
  24285000   302.87443     -1467.8664      1259.4946      2500.0617      17.215544    
  24290000   299.37012     -1478.3204      1301.3446      2500.1205     -0.57037184   
  24295000   304.8502      -1451.2172      1271.649       2546.5334     -1.0193207    
  24300000   301.54469     -1441.9016      1195.356       2449.9967     -5.9022033    
  24305000   294.27492     -1425.3703      1268.5776      2474.7402     -0.70561561   
  24310000   297.12489     -1440.4981      1241.2104      2457.7309      3.1369665    
  24315000   302.96295     -1433.9105      1263.7396      2539.0541     -3.0682451    
  24320000   292.95454     -1455.3724      1263.265       2427.6181      6.527531     
  24325000   312.49948     -1427.989       1250.0379      2616.5537      14.366823    
  24330000   296.71089     -1412.7889      1235.8172      2476.3446      6.0938866    
  24335000   296.88187     -1425.7519      1202.8964      2431.9899      20.415485    
  24340000   300.83902     -1452.8871      1288.977       2526.3218      5.9433536    
  24345000   292.37548     -1431.6797      1267.6297      2450.4973     -2.4752324    
  24350000   300.35737     -1425.719       1257.9525      2518.1583      9.4342133    
  24355000   304.04815     -1423.5051      1270.3156      2565.7399      8.0566721    
  24360000   301.64489     -1405.7415      1256.6585      2548.3554     -4.3200981    
  24365000   303.10031     -1406.7744      1274.7053      2578.3843      10.795302    
  24370000   294.45708     -1426.5666      1272.519       2479.1142     -2.1436205    
  24375000   303.39825     -1399.743       1248.9207      2562.2955      4.5623168    
  24380000   301.24958     -1384.2595      1265.6978      2575.3415      6.2213906    
  24385000   298.85555     -1396.6307      1272.1687      2548.0329      9.3458605    
  24390000   291.5606      -1414.2442      1273.6278      2466.6438     -2.1021179    
  24395000   297.59129     -1389.9071      1274.065       2545.3472      13.252882    
  24400000   299.5096      -1381.675       1252.4108      2549.0794      1.7279058    
  24405000   306.88435     -1374.2662      1251.9538      2621.9795     -9.8596172    
  24410000   304.12608     -1402.9798      1304.9928      2621.6392      0.041925147  
  24415000   293.53794     -1398.5447      1282.227       2508.6248      8.4460667    
  24420000   289.40022     -1392.5933      1252.6991      2448.0471      7.0792872    
  24425000   296.27487     -1411.7753      1278.1353      2515.7773     -0.43933696   
  24430000   298.56029     -1487.3596      1223.0349      2405.5299      18.1528      
  24435000   303.72077     -1476.0899      1244.0034      2483.9153     -0.56491355   
  24440000   305.85111     -1467.7118      1229.4418      2496.7822      5.8121754    
  24445000   294.39117     -1483.623       1278.6595      2427.609       0.32679365   
  24450000   290.04137     -1441.1813      1265.0309      2417.5243     -20.472535    
  24455000   291.70183     -1481.3155      1246.9535      2374.1612      12.51622     
  24460000   296.13602     -1469.1735      1271.014       2450.0162      22.345       
  24465000   293.00385     -1518.5025      1260.0994      2361.7633      11.223406    
  24470000   297.63584     -1512.9806      1234.7159      2383.323      -0.31331238   
  24475000   299.51465     -1511.0238      1266.2144      2433.5795      12.234895    
  24480000   297.25313     -1513.3511      1208.7802      2353.5945     -7.2429938    
  24485000   302.87994     -1521.762       1242.6246      2429.3453     -2.8604621    
  24490000   292.88989     -1501.7593      1258.1194      2375.5074     -10.666802    
  24495000   303.6721      -1498.2482      1259.7124      2477.0307      8.1418954    
  24500000   292.39446     -1476.9632      1217.5263      2355.28       -2.683095     
  24505000   296.82861     -1511.6515      1258.7747      2401.4923      12.379805    
  24510000   293.86062     -1477.7404      1256.7334      2406.821       4.1897723    
  24515000   304.86735     -1513.3392      1266.9331      2479.8489      34.008991    
  24520000   296.88484     -1457.0787      1227.876       2425.6692      11.845546    
  24525000   302.17094     -1450.4616      1247.4257      2499.1066      22.600251    
  24530000   299.50768     -1461.7583      1303.8161      2520.3844      8.9242653    
  24535000   305.89304     -1466.6552      1265.3051      2534.0771      21.937403    
  24540000   302.32483     -1478.7429      1274.7986      2499.5744     -2.431099     
  24545000   292.34516     -1465.5233      1290.1647      2438.9176     -4.1806085    
  24550000   305.33083     -1429.9746      1264.3061      2564.7311      9.9969782    
  24555000   297.06144     -1429.1393      1220.5188      2447.8306      23.38133     
  24560000   300.00063     -1452.8169      1278.4231      2508.3409      5.7279553    
  24565000   299.01458     -1460.9017      1255.4247      2468.44        3.7813783    
  24570000   296.95982     -1420.668       1246.8406      2481.715       12.885548    
  24575000   301.4906      -1425.5091      1293.3629      2563.9125     -11.479407    
  24580000   309.49915     -1414.3529      1252.9493      2606.271       6.0898292    
  24585000   298.18287     -1364.519       1250.2046      2552.1651     -6.0255758    
  24590000   300.93848     -1388.2614      1310.2251      2613.085       4.0011989    
  24595000   301.07778     -1425.2357      1253.3291      2520.4605      8.0203793    
  24600000   294.80525     -1443.6217      1294.1828      2486.8364     -9.1942503    
  24605000   302.18808     -1414.5194      1297.293       2585.0694      6.5068356    
  24610000   301.45414     -1439.7259      1237.6645      2493.6711      24.394187    
  24615000   307.27818     -1430.0779      1223.8006      2541.5364      7.9259558    
  24620000   296.18828     -1468.3759      1277.237       2457.5041     -6.4583166    
  24625000   309.05116     -1450.6432      1230.0179      2543.0431      7.2656574    
  24630000   304.87483     -1462.2319      1244.3352      2508.4252      0.31081608   
  24635000   305.42623     -1467.4199      1239.1574      2502.9901      13.790506    
  24640000   298.95011     -1432.3922      1282.7105      2523.6588      14.545677    
  24645000   298.09359     -1456.2451      1242.651       2452.087       15.418068    
  24650000   300.79197     -1463.4874      1280.7803      2507.104       3.3482829    
  24655000   296.99645     -1441.3223      1314.4217      2528.9694      9.9874179    
  24660000   291.78307     -1433.4463      1236.8247      2412.6281      11.303261    
  24665000   302.51872     -1438.9382      1312.7205      2579.0349      15.434152    
  24670000   300.77919     -1451.4323      1258.6068      2496.8714      0.42777679   
  24675000   304.52185     -1462.9969      1309.0194      2569.1878      3.8548952    
  24680000   304.21022     -1462.9982      1279.4588      2536.8392     -2.4019472    
  24685000   300.51576     -1484.7666      1255.6423      2458.217       2.1755579    
  24690000   302.73308     -1454.6991      1237.9469      2490.4172     -1.9235744    
  24695000   296.59013     -1483.15        1271.661       2440.7475     -17.171469    
  24700000   301.13522     -1469.2924      1193.1241      2416.7123      8.7890063    
  24705000   297.85158     -1477.7139      1277.5625      2463.3655      18.456727    
  24710000   299.57644     -1495.0414      1290.8559      2474.7558      12.183335    
  24715000   295.54552     -1545.3509      1277.7756      2375.3198      11.807383    
  24720000   303.67656     -1526.6431      1295.7462      2484.7096     -14.718449    
  24725000   301.74492     -1528.2965      1314.0869      2484.1234      4.9820954    
  24730000   300.04783     -1527.5584      1294.5019      2450.1003      12.993649    
  24735000   296.21752     -1489.1312      1301.1347      2460.908      -12.839634    
  24740000   299.12972     -1492.731       1288.0722      2470.2878      13.482925    
  24745000   297.19496     -1489.6115      1279.1643      2447.198       30.68895     
  24750000   300.69986     -1511.4839      1317.9236      2495.4271      15.533632    
  24755000   305.71745     -1527.6221      1259.4577      2465.6925      29.769313    
  24760000   293.69751     -1516.954       1234.1983      2343.6138      4.6167361    
  24765000   305.47388     -1510.1034      1317.0932      2538.6686      14.354166    
  24770000   300.16388     -1487.2793      1272.3331      2469.2483      6.4505629    
  24775000   294.42551     -1450.6533      1270.237       2452.4632      1.5836922    
  24780000   300.54628     -1461.6663      1285.6708      2511.6187      7.9983716    
  24785000   299.7808      -1503.0415      1181.9776      2359.7049      0.74795512   
  24790000   305.83121     -1489.7966      1254.8598      2499.9374     -2.8478631    
  24795000   293.42172     -1494.6908      1259.4688      2388.6813     -5.5888701    
  24800000   302.38738     -1468.6562      1261.277       2496.6989      6.810754     
  24805000   301.40397     -1501.4447      1258.3661      2452.2054      9.8601246    
  24810000   306.25864     -1512.3961      1325.6576      2551.958      -0.28050065   
  24815000   304.95692     -1554.8509      1285.4184      2457.6235      4.6320715    
  24820000   303.32828     -1535.3147      1238.8402      2416.0174      2.7642681    
  24825000   297.93231     -1514.5033      1289.246       2438.9815     -4.0190201    
  24830000   302.49375     -1527.8553      1229.2489      2406.4227      0.82330073   
  24835000   298.14784     -1493.6277      1246.4046      2418.9432      5.8561638    
  24840000   304.79098     -1475.9269      1253.8858      2503.531       4.01384      
  24845000   303.75007     -1463.6062      1296.3721      2549.0297     -3.4711264    
  24850000   304.56328     -1430.557       1232.3234      2525.3024      0.48151669   
  24855000   292.59697     -1416.2152      1275.4939      2475.8068     -2.35089      
  24860000   299.59711     -1449.3918      1272.9621      2502.6966      7.7938269    
  24865000   300.61092     -1462.6523      1264.9412      2490.4812     -4.8128123    
  24870000   290.99299     -1422.5264      1218.2805      2397.9386      4.9228348    
  24875000   297.13538     -1424.2996      1225.6933      2458.506       14.039981    
  24880000   302.47202     -1381.0661      1224.7498      2548.5186      8.9039537    
  24885000   294.91708     -1448.6957      1271.0281      2459.6078      8.6044098    
  24890000   295.23358     -1452.9222      1295.3802      2482.5638      26.720072    
  24895000   291.15075     -1476.5436      1280.5455      2407.5971     -1.4853005    
  24900000   299.53997     -1506.1105      1261.7279      2434.2327     -8.1549332    
  24905000   300.19291     -1509.1317      1274.2775      2449.5999     -3.0200838    
  24910000   299.43082     -1496.9732      1235.0989      2415.7649      4.975573     
  24915000   293.4153      -1481.1938      1274.8314      2417.4834     -0.17260965   
  24920000   301.40574     -1461.5301      1209.0389      2442.8085      13.357966    
  24925000   301.46449     -1454.2868      1263.6926      2505.2309      10.058813    
  24930000   305.17215     -1463.7064      1243.6401      2508.9144      5.6749054    
  24935000   308.59209     -1462.1141      1259.8897      2557.3388     -2.3709596    
  24940000   304.77967     -1440.033       1258.9014      2544.3394     -18.261139    
  24945000   300.53835     -1388.2635      1251.584       2550.8637     -4.082386     
  24950000   303.17391     -1442.5962      1222.3843      2490.8996     -9.8095428    
  24955000   303.44324     -1444.8618      1281.8265      2550.4846      12.376644    
  24960000   294.41643     -1488.0215      1280.0422      2424.8191      15.756698    
  24965000   296.87032     -1497.316       1280.4994      2437.9256     -3.0205685    
  24970000   305.46107     -1492.3509      1278.0812      2517.2946     -2.1493241    
  24975000   298.66415     -1495.8352      1276.7391      2451.6873     -12.655748    
  24980000   303.26601     -1468.5595      1228.7869      2472.1626      8.3213245    
  24985000   299.59134     -1481.3544      1259.026       2456.7463     -9.2203673    
  24990000   292.52358     -1486.9791      1241.7489      2370.6415      5.1920418    
  24995000   307.18102     -1507.149       1253.283       2493.0788      0.94746062   
  25000000   292.21757     -1498.4422      1275.4328      2390.1258      9.8406226    
  25005000   294.94507     -1482.7805      1301.7188      2456.464      -13.95265     
  25010000   294.47661     -1469.3811      1242.1699      2406.1254     -3.3573591    
Loop time of 11756.1 on 64 procs for 25000000 steps with 3001 atoms

Performance: 5512.033 ns/day, 0.004 hours/ns, 2126.556 timesteps/s
99.6% CPU use with 64 MPI tasks x 1 OpenMP threads

MPI task timing breakdown:
Section |  min time  |  avg time  |  max time  |%varavg| %total
---------------------------------------------------------------
Pair    | 57.959     | 194.5      | 1118.3     |2304.8 |  1.65
Bond    | 39.293     | 54.883     | 161.08     | 505.4 |  0.47
Neigh   | 2519.7     | 2589.3     | 2710.1     |  77.8 | 22.02
Comm    | 7470.1     | 8691.1     | 8924.1     | 453.4 | 73.93
Output  | 25.445     | 25.529     | 25.606     |   0.9 |  0.22
Modify  | 64.64      | 88.586     | 238.61     | 594.5 |  0.75
Other   |            | 112.2      |            |       |  0.95

Nlocal:        46.8906 ave         152 max          11 min
Histogram: 14 22 18 2 0 0 0 2 4 2
Nghost:        3457.86 ave        3676 max        3186 min
Histogram: 7 1 0 0 22 2 15 9 0 8
Neighs:        432.984 ave        2829 max          33 min
Histogram: 53 3 0 0 0 0 0 4 2 2
FullNghs:      865.969 ave        5714 max          64 min
Histogram: 53 3 0 0 0 0 2 2 2 2

Total # of neighbors = 55422
Ave neighs/atom = 18.467844
Ave special neighs/atom = 3.5988004
Neighbor list builds = 2500000
Dangerous builds = 2499990
Total wall time: 3:16:00
