LAMMPS (23 Jun 2022)
OMP_NUM_THREADS environment is not set. Defaulting to 1 thread. (src/src/comm.cpp:98)
  using 1 OpenMP thread(s) per MPI task

variable 		movie equal 5000
variable		solvent equal 0.2  #0.2 is a good solvent, 0.5 is a bad solvent, 1.0 is no solvent/vacuum
variable		np_rad equal 25.0  #NP radius in Angstrom (= 0.1 nm)
variable                coor_del equal 3.0 #maximum range for a 'bound' ligand
variable 		E_bind equal 14.0  #ligand-NP binding energy in kcal/mol
variable		Lbox equal 150.0   #edge length of cubic simulation box
variable 		Nlig equal 600	   #number of ligands
variable		seed equal 314159
variable		trajsteps equal 5000000	 #number of timesteps (length of simulation)

units 			real
atom_style		molecular

region 			box block 0 ${Lbox} 0 ${Lbox} 0 ${Lbox} units box
region 			box block 0 150 0 ${Lbox} 0 ${Lbox} units box
region 			box block 0 150 0 150 0 ${Lbox} units box
region 			box block 0 150 0 150 0 150 units box
create_box		4 box bond/types 2 angle/types 1 extra/bond/per/atom 2 extra/angle/per/atom 1 extra/special/per/atom 3
Created orthogonal box = (0 0 0) to (150 150 150)
  2 by 3 by 3 MPI processor grid

molecule		lig ligand.mol
Read molecule template lig:
  1 molecules
  0 fragments
  5 atoms with max type 2
  4 bonds with max type 1
  3 angles with max type 1
  0 dihedrals with max type 0
  0 impropers with max type 0
#molecule		hex hexane.mol

mass            1 60 #C1, MARTINI bead representing a 4-carbon segment of an alkyl chain
mass            2 60 #N6d, MARTINI bead representing a NH2 amino group + a 2-carbon segment of an alkyl chain
mass            3 43 #SC2, MARTINI bead representing a 3-carbon segment of an alkyl chain. NOT USED IN THIS SIMULATION!
mass            4 500 #a spherical nanoparticle. the mass is not realistic.

create_atoms	0 random ${Nlig} ${seed} box mol lig 12345
create_atoms	0 random 600 ${seed} box mol lig 12345
create_atoms	0 random 600 314159 box mol lig 12345
Created 3000 atoms
  using lattice units in orthogonal box = (0 0 0) to (150 150 150)
  create_atoms CPU = 0.005 seconds

pair_style		lj/expand 12.0
pair_modify		shift yes

#pair_coeff		1 1 energy sigma delta cut

#ligand-ligand interactions
pair_coeff		1 1 $(v_solvent*0.810) 4.7 0 12
pair_coeff		1 1 0.16200000000000003286 4.7 0 12
pair_coeff		2 2 $(v_solvent*0.841) 4.7 0 12
pair_coeff		2 2 0.16820000000000001616 4.7 0 12
pair_coeff		1 2 $(v_solvent*0.667) 4.7 0 12
pair_coeff		1 2 0.13340000000000001856 4.7 0 12

#solvent-ligand interactions, NOT USED IN THIS SIMULATION
pair_coeff		3 3 0.562 4.1 0 12
pair_coeff		1 3 0.755 4.3 0 12
pair_coeff		2 3 0.554 4.3 0 12

#interactions involving the NP
pair_coeff  	1 4 0.100 4.0 $(v_np_rad-2.5) 12
pair_coeff  	1 4 0.100 4.0 22.5 12
pair_coeff  	3 4 0.100 4.0 $(v_np_rad-2.5) 12
pair_coeff  	3 4 0.100 4.0 22.5 12
pair_coeff		4 4 0.100 4.0 $(2*v_np_rad-4.0) 12
pair_coeff		4 4 0.100 4.0 46 12
pair_coeff   	2 4 20.00 4.0 $(v_np_rad-2.5) 12 #this interaction controls the binding strength of ligands to the NP core
pair_coeff   	2 4 20.00 4.0 22.5 12 

bond_style  	harmonic
bond_coeff  	1 4.54 4.7 	#C1-C1
bond_coeff		2 5.98 4.05 #SC2-SC2, hexane

angle_style		cosine/squared
angle_coeff		1 4.1826 180

special_bonds 	lj 0 1 1
Finding 1-2 1-3 1-4 neighbors ...
  special bond factors lj:    0        1        1       
  special bond factors coul:  0        0        0       
     2 = max # of 1-2 neighbors
     2 = max # of 1-3 neighbors
     2 = max # of 1-4 neighbors
     7 = max # of special neighbors
  special bonds CPU = 0.001 seconds

group			ligands type 1 2
3000 atoms in group ligands

#EQULILIBRATION: getting rid of overlaps between particles using fix nve/limit ***************

fix 			1 ligands nve/limit 0.1
fix 			2 ligands langevin 300 300 1000 12345 #langevin thermostat

timestep		30

thermo 			5000

dump      		1 all custom ${movie} pos.lammpstrj type x y z
dump      		1 all custom 5000 pos.lammpstrj type x y z
dump_modify		1 sort id

run				10000
Generated 0 of 6 mixed pair_coeff terms from geometric mixing rule
Neighbor list info ...
  update every 1 steps, delay 10 steps, check yes
  max neighbors/atom: 2000, page size: 100000
  master list distance cutoff = 60
  ghost atom cutoff = 60
  binsize = 30, bins = 5 5 5
  1 neighbor lists, perpetual/occasional/extra = 1 0 0
  (1) pair lj/expand, perpetual
      attributes: half, newton on
      pair build: half/bin/newton
      stencil: half/bin/3d
      bin: standard
Per MPI rank memory allocation (min/avg/max) = 8.33 | 8.35 | 8.369 Mbytes
   Step          Temp          E_pair         E_mol          TotEng         Press     
         0   0              9.7270039e+12  3.6653395e-25  9.7270039e+12  7.9047746e+11
      5000   143.49505     -243.99455      632.61849      1671.3907      3.4333668    
     10000   137.89879     -269.84513      642.04038      1604.9345     -0.72472994   
Loop time of 4.54264 on 18 procs for 10000 steps with 3000 atoms

Performance: 5705.931 ns/day, 0.004 hours/ns, 2201.362 timesteps/s
99.6% CPU use with 18 MPI tasks x 1 OpenMP threads

MPI task timing breakdown:
Section |  min time  |  avg time  |  max time  |%varavg| %total
---------------------------------------------------------------
Pair    | 0.20863    | 0.31326    | 0.4814     |  13.0 |  6.90
Bond    | 0.086514   | 0.10996    | 0.13866    |   4.4 |  2.42
Neigh   | 1.7822     | 1.7853     | 1.791      |   0.2 | 39.30
Comm    | 1.9045     | 2.1297     | 2.2778     |   7.0 | 46.88
Output  | 0.0016293  | 0.0016405  | 0.0016646  |   0.0 |  0.04
Modify  | 0.10668    | 0.13269    | 0.16227    |   4.7 |  2.92
Other   |            | 0.07008    |            |       |  1.54

Nlocal:        166.667 ave         210 max         124 min
Histogram: 1 1 3 4 1 2 1 1 1 3
Nghost:        4843.17 ave        5008 max        4703 min
Histogram: 2 1 1 4 2 4 1 1 1 1
Neighs:        1152.33 ave        1747 max         668 min
Histogram: 3 0 3 4 0 2 3 1 0 2

Total # of neighbors = 20742
Ave neighs/atom = 6.914
Ave special neighs/atom = 3.6
Neighbor list builds = 909
Dangerous builds = 0

#PRODUCTION RUN ******************************************************************************

unfix 			1
fix 			1 ligands nve
undump			1
# define spherical region in center of sim. box
region			center sphere $(v_Lbox/2) $(v_Lbox/2) $(v_Lbox/2) $(v_np_rad+5.0) units box
region			center sphere 75 $(v_Lbox/2) $(v_Lbox/2) $(v_np_rad+5.0) units box
region			center sphere 75 75 $(v_Lbox/2) $(v_np_rad+5.0) units box
region			center sphere 75 75 75 $(v_np_rad+5.0) units box
region			center sphere 75 75 75 30 units box
# delete atoms in the region
delete_atoms	region center mol yes
WARNING: Ignoring 'compress yes' for molecular system (src/src/delete_atoms.cpp:140)
Deleted 110 atoms, new total = 2890
Deleted 88 bonds, new total = 2312
Deleted 66 angles, new total = 1734
# put NP in the hole
create_atoms	4 single $(v_Lbox/2) $(v_Lbox/2) $(v_Lbox/2) units box
create_atoms	4 single 75 $(v_Lbox/2) $(v_Lbox/2) units box
create_atoms	4 single 75 75 $(v_Lbox/2) units box
create_atoms	4 single 75 75 75 units box
Created 1 atoms
  using box units in orthogonal box = (0 0 0) to (150 150 150)
  create_atoms CPU = 0.000 seconds

dump      		2 all custom ${movie} pos2.lammpstrj type x y z
dump      		2 all custom 5000 pos2.lammpstrj type x y z
dump_modify		2 sort id

group           nps     type 4
1 atoms in group nps
group           amines  type 2
578 atoms in group amines

# count coordination number of NP
compute coords nps coord/atom cutoff $(v_np_rad + v_coor_del) 2
compute coords nps coord/atom cutoff 28 2
dump 3 nps custom ${movie} coords.dmp c_coords
dump 3 nps custom 5000 coords.dmp c_coords
# equivalent calculation below
# compute coords nps coord/atom cutoff 28 group amines
# dump 4 nps custom ${movie} coords2.dmp type c_coords2

run				${trajsteps}
run				5000000
Generated 0 of 6 mixed pair_coeff terms from geometric mixing rule
Neighbor list info ...
  update every 1 steps, delay 10 steps, check yes
  max neighbors/atom: 2000, page size: 100000
  master list distance cutoff = 60
  ghost atom cutoff = 60
  binsize = 30, bins = 5 5 5
  2 neighbor lists, perpetual/occasional/extra = 1 1 0
  (1) pair lj/expand, perpetual
      attributes: half, newton on
      pair build: half/bin/newton
      stencil: half/bin/3d
      bin: standard
  (2) compute coord/atom, occasional
      attributes: full, newton on
      pair build: full/bin
      stencil: full/bin/3d
      bin: standard
Per MPI rank memory allocation (min/avg/max) = 9.345 | 9.413 | 10.34 Mbytes
   Step          Temp          E_pair         E_mol          TotEng         Press     
     10000   137.57502     -259.93069      618.88624      1544.1012     -2.1108817    
     15000   296.21578     -1078.5398      1229.8832      2703.1065      10.724863    
     20000   295.20661     -1492.2005      1212.8593      2263.7282      0.36226604   
     25000   302.43271     -1959.2965      1226.8725      1872.895       39.401544    
     30000   306.5735      -2305.4031      1199.076       1534.663       9.2377009    
     35000   295.60812     -2529.0146      1237.602       1255.1157      16.227058    
     40000   299.3397      -2712.3847      1194.252       1060.5414      0.37792394   
     45000   301.2382      -2914.8204      1258.1359      938.34436      20.7388      
     50000   294.67255     -3198.8257      1267.4923      607.13539     -4.0247561    
     55000   292.94207     -3303.3155      1255.8608      476.10675      14.303072    
     60000   299.31544     -3423.583       1159.7265      314.60858      19.124611    
     65000   301.13394     -3567.917       1258.9515      285.16511     -28.573268    
     70000   295.72961     -3782.7634      1214.3825     -20.806085      15.773838    
     75000   303.60186     -3969.4228      1192.2823     -161.74983     -0.27992199   
     80000   297.59843     -4176.8832      1175.4101     -437.79921     -1.6345377    
     85000   305.87716     -4286.5774      1254.567      -397.01904      16.658261    
     90000   300.77757     -4431.3512      1208.4655     -631.82493     -27.284047    
     95000   302.79832     -4482.1506      1200.1973     -673.48477     -16.656992    
    100000   297.37946     -4546.2696      1224.8065     -759.67552      34.385738    
    105000   298.98514     -4627.5253      1223.917      -827.98844      3.9755259    
    110000   296.8206      -4687.5096      1215.9039     -914.6325       37.838226    
    115000   293.76696     -4721.0054      1240.0017     -950.33618      34.934538    
    120000   298.52408     -4790.5907      1215.1497     -1003.7931      6.500885     
    125000   294.28597     -4911.5731      1206.9569     -1169.4776      31.146577    
    130000   301.34667     -4952.4477      1225.7056     -1130.7788     -21.519194    
    135000   302.07706     -4961.5172      1245.548      -1113.7139      12.380213    
    140000   303.55482     -5017.3907      1243.7179     -1158.6873     -1.5708116    
    145000   301.23825     -5060.1595      1168.4208     -1296.7095      9.8879535    
    150000   303.59395     -5128.6505      1222.2515     -1291.0764      7.964033     
    155000   301.62801     -5258.6153      1165.4096     -1494.8188      4.9884561    
    160000   297.76632     -5304.5918      1174.3199     -1565.1517      61.10711     
    165000   295.68829     -5354.4176      1169.5586     -1637.6401     -5.7713279    
    170000   301.03401     -5423.518       1216.1762     -1614.072      -4.0889305    
    175000   300.63375     -5418.0818      1228.7701     -1599.4899      22.041898    
    180000   303.26846     -5455.9554      1175.8458     -1667.591       13.545306    
    185000   310.12078     -5617.1597      1181.3901     -1764.2214      20.514862    
    190000   296.30337     -5649.2944      1225.2272     -1871.5497      33.337484    
    195000   300.17506     -5673.0183      1178.4793     -1908.6685      12.916488    
    200000   304.59191     -5704.0542      1171.5673     -1908.5674     -37.941725    
    205000   294.13442     -5797.2503      1185.4268     -2077.9904     -6.6430146    
    210000   298.07833     -5777.4932      1190.7211     -2018.9641     -35.485818    
    215000   304.8635      -5867.6789      1188.342      -2053.0778      0.26498252   
    220000   303.63864     -5922.4276      1175.5577     -2131.1623     -22.121308    
    225000   293.6409      -5971.9568      1164.9413     -2277.4339      32.694737    
    230000   305.25682     -6010.5398      1199.8544     -2181.0379      26.339324    
    235000   294.93305     -6009.485       1179.5059     -2289.2662      16.679023    
    240000   298.92405     -6073.1364      1142.906      -2355.1368      25.934353    
    245000   290.2305      -6152.5954      1214.4755     -2437.9174     -13.639531    
    250000   299.03795     -6175.4241      1162.2479     -2437.1015     -35.305122    
    255000   300.07069     -6182.7073      1167.0185     -2430.7175     -7.1315004    
    260000   292.14054     -6269.5882      1152.3692     -2600.5623     -0.010257587  
    265000   299.85971     -6354.617       1165.4922     -2605.971       13.764277    
    270000   296.29339     -6348.6273      1153.2881     -2642.9077      7.6445239    
    275000   300.46947     -6453.7326      1201.0821     -2664.2439      31.853508    
    280000   303.54569     -6433.7294      1117.1267     -2701.6958      19.312472    
    285000   303.86515     -6429.8898      1192.3037     -2619.9273     -26.097498    
    290000   307.54955     -6445.8336      1156.9788     -2639.4566     -5.3641082    
    295000   295.29104     -6444.0816      1186.1384     -2714.1464      15.146979    
    300000   301.30875     -6492.4935      1179.2109     -2717.6461      46.218484    
    305000   303.22492     -6481.5516      1148.0045     -2721.4036      5.2619692    
    310000   300.19522     -6495.6127      1139.0289     -2770.5397      14.520124    
    315000   304.69204     -6535.8933      1136.6171     -2774.4941      9.0214583    
    320000   308.30017     -6563.6207      1142.6102     -2765.1461      9.6026671    
    325000   297.26944     -6569.632       1153.3494     -2855.4427      5.4942148    
    330000   298.03005     -6577.4996      1179.2911     -2830.8163      17.53469     
    335000   295.68096     -6613.5078      1151.8282     -2914.5239      22.168075    
    340000   296.10586     -6677.431       1225.0111     -2901.6038      12.277589    
    345000   302.98032     -6701.8699      1160.1564     -2931.6771     -47.988728    
    350000   304.01005     -6734.9387      1185.7017     -2930.3299     -0.17305449   
    355000   304.59286     -6730.313       1154.1253     -2952.2599     -0.44997355   
    360000   298.53242     -6717.009       1148.2642     -2997.0249      11.483736    
    365000   301.25405     -6720.7748      1200.1123     -2925.4971     -2.3710091    
    370000   294.98394     -6747.4449      1150.3353     -3055.9584      10.956384    
    375000   301.9981      -6751.6804      1147.9777     -3002.1277      46.841227    
    380000   299.83068     -6769.6457      1163.3977     -3023.3443     -13.979927    
    385000   300.79237     -6748.1413      1174.0576     -2982.8955     -49.566043    
    390000   293.71692     -6771.3812      1201.2688     -3039.876       2.3442517    
    395000   301.19936     -6811.8063      1136.805      -3080.307       35.514139    
    400000   296.37869     -6816.7499      1185.1815     -3078.4021      38.274128    
    405000   304.28796     -6810.0688      1151.4112     -3037.3565      0.66150547   
    410000   303.69557     -6852.0857      1162.6486     -3073.2391     -19.258258    
    415000   303.86344     -6822.0476      1178.5688     -3025.8347     -9.2195574    
    420000   304.14582     -6835.7249      1172.2795     -3043.3688     -41.294835    
    425000   301.20938     -6885.3073      1201.2952     -3089.2315      38.415916    
    430000   299.24164     -6880.2546      1171.1424     -3131.2827     -8.0275703    
    435000   299.69597     -6903.7698      1173.8658     -3148.1608      43.475517    
    440000   290.34751     -6902.7737      1149.5588     -3252.0043     -7.272282     
    445000   301.45091     -6898.4593      1209.74       -3091.8582      14.577802    
    450000   300.82438     -6935.9393      1132.8734     -3211.6019      14.099987    
    455000   299.18568     -6937.3224      1149.8125     -3210.1626      24.346501    
    460000   301.28132     -6893.5339      1114.5954     -3183.5382     -32.425614    
    465000   295.76138     -6922.8364      1177.9025     -3197.0853     -17.352371    
    470000   301.42791     -6975.2018      1158.949      -3219.5897     -44.965732    
    475000   297.13906     -6993.5643      1170.523      -3263.3247     -17.495914    
    480000   306.44187     -6973.2206      1187.5919     -3145.7726      35.505074    
    485000   295.92569     -6957.1965      1175.4083     -3232.5242      28.658968    
    490000   295.9611      -6959.6211      1178.7513     -3231.3008     -16.948639    
    495000   302.07313     -7000.4276      1196.4437     -3201.7625     -27.601515    
    500000   299.73414     -7017.7375      1112.9781     -3322.6874     -39.213513    
    505000   295.85195     -7059.5415      1119.98       -3390.9327     -0.91959573   
    510000   299.2516      -7071.5926      1160.8972     -3332.7803     -7.2668829    
    515000   299.85543     -7098.623       1128.9522     -3386.5539      3.8744762    
    520000   303.6701      -7083.853       1143.765      -3324.1094     -7.5715633    
    525000   297.20832     -7106.3406      1163.0037     -3383.0236      0.50620454   
    530000   303.37027     -7101.5518      1108.5991     -3379.5571      39.611003    
    535000   297.83638     -7072.4083      1179.6839     -3327.0007     -25.118617    
    540000   298.76844     -7104.755       1102.4169     -3428.5852     -11.472741    
    545000   295.01176     -7085.8919      1168.0389     -3376.462       25.324994    
    550000   303.08281     -7082.0713      1164.5652     -3306.5868     -16.241039    
    555000   296.47452     -7107.4674      1175.6889     -3377.7866      20.35359     
    560000   298.84488     -7122.2567      1197.2798     -3350.5654     -33.531961    
    565000   304.37046     -7121.9894      1220.3675     -3279.6101      35.13231     
    570000   300.72255     -7123.2301      1140.1802     -3392.4631      32.922074    
    575000   300.17875     -7101.2116      1170.1143     -3345.1951     -23.083011    
    580000   300.67082     -7146.0657      1132.7582     -3423.1665     -23.258205    
    585000   298.13754     -7159.5072      1137.951      -3453.2381      27.15723     
    590000   303.03339     -7199.8916      1149.9015     -3439.4966     -55.356162    
    595000   299.52969     -7197.4605      1140.291      -3476.8587      5.9745546    
    600000   301.6401      -7200.0133      1220.7449     -3380.7773      13.567148    
    605000   298.46995     -7178.365       1209.2943     -3397.8891      5.1393744    
    610000   306.49176     -7198.3061      1152.1517     -3405.8686      39.625729    
    615000   295.56214     -7217.1399      1165.0303     -3505.9775      1.3573221    
    620000   295.07497     -7230.0413      1182.4356     -3505.6703      28.914588    
    625000   298.51593     -7246.632       1181.9889     -3493.0654      3.45453      
    630000   303.99428     -7244.4828      1163.2753     -3462.4362     -2.5902185    
    635000   297.77809     -7239.5225      1168.4102     -3505.8907     -32.337036    
    640000   295.96249     -7274.3976      1110.5487     -3614.2679     -26.379055    
    645000   293.42365     -7284.6826      1164.466      -3592.5064     -32.338751    
    650000   300.38988     -7303.9111      1160.0142     -3556.176       48.87379     
    655000   298.66253     -7328.1867      1137.9199     -3617.4263      20.404433    
    660000   294.1349      -7327.3119      1157.0698     -3636.4048     -3.1376596    
    665000   304.11937     -7351.229       1168.0756     -3563.3046     -7.6548427    
    670000   302.59796     -7335.8203      1160.658      -3568.4198      24.340754    
    675000   300.51265     -7354.3729      1166.8404     -3598.754       20.615307    
    680000   295.92062     -7376.4221      1150.6368     -3676.565       30.233255    
    685000   310.30653     -7355.4831      1154.4176     -3527.9172      9.1061358    
    690000   296.43598     -7329.6266      1145.8017     -3630.165      -11.206164    
    695000   297.81877     -7393.1507      1154.1618     -3673.4169     -18.225051    
    700000   303.0419      -7403.5806      1131.4689     -3661.5448     -9.0456947    
    705000   307.16236     -7361.138       1170.1172     -3544.958      -4.2836057    
    710000   297.19034     -7377.9448      1115.1417     -3702.6447      23.253229    
    715000   299.38051     -7392.689       1157.2046     -3656.4587      26.4425      
    720000   304.36936     -7425.4944      1099.8927     -3703.5993      10.40297     
    725000   296.68927     -7462.4399      1136.785      -3769.8129      36.416264    
    730000   294.79699     -7452.7891      1154.9438     -3758.3045     -23.50633     
    735000   303.3955      -7451.5308      1147.8929     -3690.0248     -10.313294    
    740000   305.1315      -7443.5078      1161.6614     -3653.2786     -4.3810625    
    745000   296.26507     -7499.507       1137.1952     -3810.1242     -6.9459963    
    750000   301.51028     -7483.9968      1079.3311     -3807.2929      26.118341    
    755000   297.92813     -7473.0084      1085.9398     -3820.5545     -22.097694    
    760000   304.55841     -7463.8361      1129.3267     -3710.8784     -6.7388323    
    765000   297.78125     -7514.012       1189.6539     -3759.1093     -30.248679    
    770000   305.03839     -7459.8574      1124.7225     -3707.3692      33.228338    
    775000   303.3734      -7461.3824      1209.7691     -3638.1907     -25.400368    
    780000   304.5226      -7488.876       1196.0092     -3669.5444     -5.5299724    
    785000   299.98762     -7452.8978      1145.4805     -3723.1617      20.775514    
    790000   298.80825     -7491.3379      1127.9499     -3789.2921      7.3387321    
    795000   299.0903      -7468.1952      1156.8239     -3734.8457     -6.7140913    
    800000   294.19564     -7487.3589      1102.0946     -3850.9039      16.359552    
    805000   295.58915     -7481.4277      1172.5154     -3762.5475      33.323908    
    810000   303.47637     -7463.0895      1125.0503     -3723.7296      35.788111    
    815000   306.35985     -7482.9275      1119.7121     -3724.0659     -29.698655    
    820000   301.55908     -7500.7492      1225.299      -3677.6571      19.410979    
    825000   299.60534     -7494.2117      1165.703      -3747.5462      37.553221    
    830000   300.57267     -7485.8807      1138.1203     -3758.4648     -10.069134    
    835000   297.96697     -7462.0943      1156.1977     -3739.0478     -30.158089    
    840000   301.56591     -7482.6158      1182.93       -3701.8339      17.189069    
    845000   298.5781      -7522.6563      1150.4388     -3800.1042     -35.22188     
    850000   305.54685     -7498.676       1137.9073     -3728.6228     -3.930339     
    855000   296.60447     -7527.8867      1182.9255     -3789.8498     -0.057919457  
    860000   299.71437     -7546.7539      1125.6118     -3839.2404      18.826975    
    865000   306.30968     -7561.0214      1196.9711     -3725.333      -3.6917354    
    870000   305.55058     -7504.6146      1184.8675     -3687.5691      24.039682    
    875000   306.70714     -7565.9883      1194.967      -3728.88       -19.479689    
    880000   299.45378     -7541.4964      1148.3525     -3813.4871     -8.5249347    
    885000   295.49442     -7520.0985      1139.0301     -3835.5197      2.2939128    
    890000   298.67162     -7536.0097      1132.0066     -3831.0842     -32.332687    
    895000   301.67263     -7554.7096      1146.3462     -3809.5922     -5.878992     
    900000   297.05247     -7578.2414      1167.043      -3852.2277      17.994693    
    905000   299.02631     -7580.6962      1124.5904     -3880.1314     -18.017839    
    910000   295.5327      -7564.6247      1125.6421     -3893.1039      22.725032    
    915000   296.14669     -7572.1085      1151.2789     -3869.6618      12.539221    
    920000   295.50026     -7573.7824      1132.2784     -3895.9049      4.0938974    
    925000   299.45946     -7608.82        1163.9041     -3865.2101     -56.823359    
    930000   299.17751     -7595.6647      1112.3317     -3906.056      -1.280578     
    935000   304.87155     -7585.1573      1195.765      -3763.0639      31.650719    
    940000   295.33271     -7621.8228      1188.1172     -3889.5499     -36.932957    
    945000   294.26459     -7621.9069      1127.669      -3959.2835     -40.095604    
    950000   298.79508     -7598.4438      1129.9694     -3894.4918      42.859538    
    955000   301.55071     -7604.1368      1148.0743     -3858.3414      14.934755    
    960000   303.18633     -7580.4502      1140.0945     -3828.5446      43.793245    
    965000   297.35781     -7601.8891      1175.1868     -3865.1012     -24.738161    
    970000   299.21366     -7609.4093      1148.7628     -3883.0582      35.200403    
    975000   298.33199     -7632.7036      1175.0654     -3887.6449     -4.0402685    
    980000   290.0724      -7634.1513      1135.2111     -4000.0996     -6.6422926    
    985000   307.24389     -7606.5173      1162.9393     -3796.8128     -8.7831827    
    990000   299.43931     -7613.183       1176.9052     -3856.7456      0.6378908    
    995000   299.62049     -7634.6578      1192.0011     -3861.5637      14.200066    
   1000000   294.55294     -7628.5455      1154.1144     -3936.9927     -14.607289    
   1005000   299.5396      -7640.4744      1179.8569     -3880.2213      13.263202    
   1010000   296.90342     -7642.6347      1088.0124     -3996.9356      0.8009088    
   1015000   298.45239     -7655.1299      1173.3047     -3910.7948      6.9217283    
   1020000   297.97225     -7678.381       1163.494      -3947.9929      34.907983    
   1025000   296.41637     -7637.4789      1137.6855     -3946.3024     -42.15624     
   1030000   296.33084     -7629.9098      1163.8922     -3913.2635      6.0812935    
   1035000   302.65921     -7667.9676      1167.3205     -3893.3769     -23.110493    
   1040000   306.35087     -7651.38        1149.9978     -3862.31        6.3154145    
   1045000   296.67474     -7638.7477      1165.9646     -3917.0664      18.519216    
   1050000   300.71765     -7639.5838      1131.702      -3917.3373     -9.1531574    
   1055000   307.3743      -7689.7793      1119.8625     -3922.0282     -14.679697    
   1060000   309.91907     -7668.6605      1152.1893     -3846.6607      2.8456728    
   1065000   303.41794     -7658.4246      1110.3459     -3934.2724      7.4474621    
   1070000   303.14332     -7679.3764      1184.4345     -3883.5013      31.524348    
   1075000   302.32741     -7663.3578      1121.8445     -3937.1014      50.122013    
   1080000   296.59549     -7667.3099      1134.4217     -3977.8542     -24.80164     
   1085000   293.59728     -7675.3791      1152.9803     -3993.193       21.2722      
   1090000   297.58904     -7628.3228      1137.6252     -3927.1046      20.395152    
   1095000   304.48271     -7653.5905      1147.9955     -3882.6162     -18.301205    
   1100000   299.46409     -7685.311       1117.7328     -3987.8326     -1.0326484    
   1105000   295.94889     -7675.2729      1135.385      -3990.424      -18.600183    
   1110000   299.32236     -7707.4255      1164.9988     -3963.902       17.82114     
   1115000   302.73125     -7720.781       1140.6884     -3972.2018      52.6609      
   1120000   298.70913     -7699.2027      1116.8092     -4009.1514     -0.82903571   
   1125000   293.94785     -7687.8188      1188.9884     -3966.6046      22.243691    
   1130000   300.02177     -7715.7535      1130.1428     -4001.0609      10.309088    
   1135000   299.34648     -7733.8042      1147.8479     -4007.2238      40.494708    
   1140000   298.83272     -7676.495       1147.0604     -3955.1279     -23.915918    
   1145000   296.5557      -7710.4217      1135.9815     -4019.7489     -18.916165    
   1150000   304.12126     -7714.551       1140.6643     -3954.0216      8.5300841    
   1155000   306.37147     -7718.3432      1125.2072     -3953.8864     -21.828545    
   1160000   299.63502     -7732.4933      1150.8659     -4000.4092      17.868317    
   1165000   292.68744     -7717.5353      1212.5355     -3983.632       3.2843031    
   1170000   304.91735     -7695.7473      1125.2572     -3943.7671     -7.5361247    
   1175000   303.3161      -7698.6847      1141.9653     -3943.7904      22.157648    
   1180000   292.97688     -7715.401       1132.045      -4059.4947      34.067573    
   1185000   302.26403     -7707.1732      1129.7252     -3973.5821      3.8066571    
   1190000   304.81491     -7713.9011      1128.8148     -3959.2458      39.96289     
   1195000   299.99893     -7725.2695      1162.0404     -3978.876       25.904568    
   1200000   307.30612     -7699.4249      1134.3233     -3917.8005     -27.880854    
   1205000   301.95537     -7727.153       1145.3405     -3980.6056      24.299799    
   1210000   303.02625     -7699.5746      1167.6331     -3921.5095      34.415889    
   1215000   305.29819     -7703.2382      1119.0212     -3954.2132      18.438535    
   1220000   300.27847     -7718.4093      1131.4141     -4000.234       1.2308769    
   1225000   298.97916     -7728.8387      1181.6965     -3971.5739     -0.40370748   
   1230000   303.29025     -7729.6638      1143.7626     -3973.195       33.972307    
   1235000   297.95841     -7703.5285      1188.5467     -3948.2068      10.129677    
   1240000   296.77513     -7711.7226      1154.2269     -4000.9141      17.188855    
   1245000   292.81918     -7711.9319      1119.8434     -4069.5857      16.90531     
   1250000   302.29062     -7709.8334      1121.0015     -3984.737      -15.727802    
   1255000   310.10906     -7740.3596      1112.5984     -3956.3139     -23.01189     
   1260000   304.65974     -7711.8605      1136.9087     -3950.448       17.575805    
   1265000   294.46642     -7715.5915      1143.1134     -4035.785       37.271738    
   1270000   298.31629     -7722.5311      1120.7689     -4031.9043     -14.51537     
   1275000   301.91587     -7735.3564      1160.8104     -3973.6793      11.829419    
   1280000   305.35671     -7743.8318      1143.1632     -3970.1607      25.708407    
   1285000   305.825       -7755.8677      1183.2782     -3938.0475      10.145592    
   1290000   300.78037     -7706.3656      1155.4424     -3959.8384      3.0863736    
   1295000   301.32708     -7737.8286      1170.6999     -3971.3342      37.322804    
   1300000   300.46058     -7736.4943      1152.5928     -3995.5715      3.9523042    
   1305000   291.24685     -7759.6935      1125.128      -4125.6076     -15.284339    
   1310000   301.18388     -7774.5844      1144.2345     -4035.789       32.914169    
   1315000   300.73851     -7769.3961      1132.5303     -4046.1416     -1.1812727    
   1320000   304.32564     -7750.1807      1129.821      -3998.734      -1.4353683    
   1325000   297.21657     -7749.0268      1123.2803     -4065.3621     -54.91869     
   1330000   304.59698     -7781.9217      1121.5618     -4036.3967      19.405412    
   1335000   305.83378     -7739.5456      1172.3652     -3932.5628      22.463685    
   1340000   292.52224     -7764.331       1100.1093     -4144.2769     -12.446355    
   1345000   295.8032      -7748.1116      1166.2826     -4033.6202      33.724417    
   1350000   307.16717     -7801.2547      1130.2399     -4024.9106     -15.450744    
   1355000   294.91286     -7717.365       1087.7057     -4089.1204      1.9142855    
   1360000   299.23707     -7755.1194      1142.5966     -4034.7329      31.894748    
   1365000   298.17465     -7782.1447      1107.1569     -4106.35        10.742       
   1370000   297.27647     -7754.7802      1079.1061     -4114.7738     -5.4436142    
   1375000   300.87616     -7734.7696      1130.857      -4012.0026     -0.46201144   
   1380000   309.03733     -7746.4493      1161.6947     -3922.5398      11.423722    
   1385000   301.76663     -7754.642       1178.2978     -3976.7632      23.082732    
   1390000   302.9943      -7777.4923      1119.0592     -4048.2763     -3.1076216    
   1395000   300.63684     -7798.7847      1156.8485     -4052.0878      20.527027    
   1400000   297.50044     -7730.8274      1162.179      -4005.8186      8.3314381    
   1405000   305.63554     -7747.0651      1102.3634     -4011.7919      3.5805839    
   1410000   298.45641     -7786.9483      1164.8806     -4051.0026     -11.927901    
   1415000   303.17008     -7776.0796      1127.2959     -4037.1125     -4.9261291    
   1420000   299.98667     -7785.9531      1133.0173     -4068.6882      30.209564    
   1425000   307.72464     -7749.0323      1133.688      -3964.4378      13.443357    
   1430000   298.68611     -7779.4895      1144.7051     -4061.7406     -7.8180448    
   1435000   293.73625     -7789.2393      1095.5649     -4163.2715      12.374931    
   1440000   299.96299     -7793.4149      1147.1095     -4062.262       48.870949    
   1445000   302.07663     -7774.7898      1170.1589     -4002.3794     -14.404259    
   1450000   296.82074     -7797.6803      1176.3465     -4064.3593     -1.834065     
   1455000   295.95366     -7805.8409      1132.1439     -4124.192       2.2995782    
   1460000   290.66601     -7786.6057      1188.0916     -4094.5599     -12.924395    
   1465000   297.28683     -7821.6368      1158.6223     -4102.0249     -39.529127    
   1470000   303.28665     -7817.5987      1177.1294     -4027.7941     -5.6984756    
   1475000   309.20117     -7850.3888      1133.8257     -4052.9369      17.252343    
   1480000   301.64197     -7813.8945      1115.9184     -4099.469      -27.71577     
   1485000   303.09698     -7812.8212      1140.6223     -4061.1575      17.365187    
   1490000   305.50528     -7802.0031      1164.6979     -4005.5175     -19.534194    
   1495000   293.3696      -7827.8877      1101.3939     -4199.2493      20.488496    
   1500000   298.04496     -7860.074       1108.0628     -4184.4907      4.551612     
   1505000   297.06297     -7861.3289      1141.8703     -4160.3975     -11.214382    
   1510000   304.74103     -7838.987       1158.3452     -4055.4378      32.08483     
   1515000   298.67284     -7867.5433      1158.9375     -4135.6763     -27.002545    
   1520000   304.91468     -7820.1394      1185.1057     -4008.3336     -11.458412    
   1525000   300.0244      -7823.2168      1140.968      -4097.6762      37.769548    
   1530000   296.27444     -7855.3481      1133.1627     -4169.9171     -10.883595    
   1535000   302.0676      -7819.3451      1120.363      -4096.8083      24.220038    
   1540000   297.70426     -7853.8059      1103.2055     -4186.0149     -9.002129     
   1545000   300.39349     -7862.722       1132.7096     -4142.2603     -8.8290068    
   1550000   297.47241     -7844.2552      1112.4804     -4169.1865      2.3389776    
   1555000   297.82168     -7879.3468      1082.5552     -4231.1945     -4.4476486    
   1560000   301.7389      -7842.6403      1192.2962     -4051.0019     -4.2938238    
   1565000   302.76035     -7875.1572      1191.1111     -4075.9046      0.0019017389 
   1570000   303.58108     -7857.8718      1155.2171     -4087.443       20.387049    
   1575000   295.81035     -7853.035       1163.4185     -4141.3461      33.71444     
   1580000   299.75594     -7895.4333      1125.6705     -4187.503      -0.24512187   
   1585000   299.10678     -7867.9939      1154.8433     -4136.4829      2.881737     
   1590000   294.44716     -7876.5856      1161.0944     -4178.9641     -16.40437     
   1595000   301.72154     -7901.3694      1102.4061     -4199.7708     -16.955647    
   1600000   295.69678     -7894.9716      1168.4846     -4179.1949      63.689831    
   1605000   301.29554     -7908.2381      1134.7639     -4177.9514      7.4307391    
   1610000   302.51412     -7935.0296      1156.1047     -4172.9047     -7.0336685    
   1615000   296.39242     -7877.5316      1190.6926     -4133.5543     -17.764308    
   1620000   293.28941     -7895.9543      1103.8638     -4265.5369     -24.597882    
   1625000   300.31256     -7893.5034      1134.8403     -4171.6083     -31.283299    
   1630000   301.94747     -7929.8945      1133.0455     -4195.7102     -32.123372    
   1635000   297.66177     -7909.2432      1164.1195     -4180.9042      23.432026    
   1640000   305.30134     -7955.0735      1160.8289     -4164.2137      3.2438172    
   1645000   301.44048     -7899.7301      1164.1476     -4138.8112      39.333832    
   1650000   302.49939     -7900.6485      1108.1543     -4186.6007      18.267776    
   1655000   302.67091     -7911.6721      1134.2263     -4170.0748     -10.546738    
   1660000   298.84363     -7900.8744      1155.0192     -4171.4545     -10.640704    
   1665000   302.28008     -7910.5609      1123.594      -4182.9627      5.7323969    
   1670000   294.05281     -7909.8624      1173.815      -4202.9174     -30.512117    
   1675000   302.11905     -7902.1778      1136.597      -4162.9638      16.720751    
   1680000   302.09174     -7890.5062      1162.3388     -4125.7856      45.149807    
   1685000   301.96195     -7943.5223      1110.6734     -4231.5853      24.332575    
   1690000   300.85604     -7955.0853      1153.0073     -4210.3413      15.80147     
   1695000   294.56456     -7909.1736      1112.9174     -4258.7177      9.1524648    
   1700000   304.6973      -7923.6451      1163.2979     -4135.5198      11.400315    
   1705000   294.24256     -7883.3151      1133.58       -4214.9705      12.104237    
   1710000   303.18145     -7948.6753      1105.2251     -4231.6812     -7.8714052    
   1715000   298.09385     -7903.0166      1127.7904     -4207.2845      28.750541    
   1720000   304.10988     -7922.056       1200.7153     -4101.5736      7.2756581    
   1725000   303.23519     -7909.1031      1129.5789     -4167.2923     -6.4260512    
   1730000   293.10597     -7902.0017      1172.4087     -4204.6196     -37.480263    
   1735000   302.29598     -7938.7734      1129.2074     -4205.4249     -3.0818492    
   1740000   306.5717      -7931.9207      1153.0821     -4137.8641      16.196978    
   1745000   297.33089     -7938.1893      1106.6809     -4270.1394     -20.409694    
   1750000   305.32989     -7928.5241      1149.6016     -4148.6457      9.4456028    
   1755000   298.96071     -7941.2452      1141.0146     -4224.8212      5.6075923    
   1760000   298.02134     -7937.5123      1117.4676     -4252.7277      13.475571    
   1765000   294.99461     -7951.3523      1169.8249     -4240.2843      2.3547315    
   1770000   292.08678     -7937.1794      1166.9278     -4254.0581     -20.408258    
   1775000   298.37327     -7937.7829      1142.273      -4225.1612     -3.0368781    
   1780000   294.664       -7945.3935      1134.1766     -4272.8218      9.0363885    
   1785000   300.49723     -7910.2782      1168.6676     -4152.9649      2.9683434    
   1790000   301.97022     -7940.0122      1114.1322     -4224.5452     -4.4035358    
   1795000   294.54979     -7955.4864      1135.3224     -4282.7527     -4.5374446    
   1800000   306.98845     -7969.1638      1095.3123     -4229.2869      9.6848936    
   1805000   298.2803      -7948.32        1091.1501     -4287.6219      34.495666    
   1810000   290.91467     -7984.2608      1122.382      -4355.7824     -18.26203     
   1815000   297.91965     -7971.6663      1143.9268     -4261.2985      32.421826    
   1820000   299.95551     -7962.8254      1149.9692     -4228.8771     -35.678434    
   1825000   306.37483     -7949.384       1136.8627     -4173.2429     -24.665738    
   1830000   304.67377     -7963.2121      1184.031      -4154.5564     -1.6541504    
   1835000   299.79879     -7956.3795      1116.1795     -4257.571      -26.409616    
   1840000   300.84316     -7993.9715      1152.0254     -4250.3204     -0.89984606   
   1845000   296.83378     -7975.3817      1116.8563     -4301.4386     -52.703282    
   1850000   291.15669     -7951.4782      1149.5924     -4293.7046     -16.960062    
   1855000   307.23815     -7946.7247      1151.6416     -4148.3674     -12.627572    
   1860000   298.85645     -7963.0489      1123.0942     -4265.4435      31.979685    
   1865000   295.71662     -7958.4222      1151.2872     -4259.6721      11.280877    
   1870000   301.16498     -7962.0897      1118.6938     -4248.9978     -5.8243844    
   1875000   307.84357     -7983.7711      1145.3075     -4186.5326     -24.268311    
   1880000   295.76669     -7986.9762      1144.2161     -4294.8659      18.516688    
   1885000   301.88273     -7964.7969      1122.9357     -4241.28       -6.3310686    
   1890000   290.63494     -7985.9869      1164.4585     -4317.8417     -32.453733    
   1895000   295.61785     -7959.1848      1140.0612     -4272.5115      0.22553499   
   1900000   300.07456     -7961.6862      1162.0619     -4214.6196     -12.536963    
   1905000   296.10463     -7982.3545      1141.0962     -4290.4529      11.506052    
   1910000   287.56417     -7960.1628      1144.7825     -4338.1469     -17.003701    
   1915000   301.08912     -7961.956       1176.1377     -4192.0737      58.167707    
   1920000   302.62956     -7973.6165      1117.7144     -4248.8874      40.636593    
   1925000   296.60894     -7969.0203      1136.9209     -4276.9495     -17.35315     
   1930000   299.98504     -7955.6844      1167.7988     -4203.6521     -19.136079    
   1935000   300.05587     -7976.9931      1153.9405     -4238.209       36.274704    
   1940000   293.01205     -7982.592       1150.5695     -4307.8582      8.7627602    
   1945000   298.28351     -7991.8793      1183.7347     -4238.569      -31.650096    
   1950000   305.46233     -8019.4864      1169.0583     -4219.0103      40.106001    
   1955000   303.00606     -7981.3845      1131.4815     -4239.6448      6.7455973    
   1960000   297.06039     -7998.184       1129.5219     -4309.6232     -47.222546    
   1965000   299.1896      -8018.5938      1101.1178     -4340.0949      4.817627     
   1970000   304.32238     -8006.4061      1110.1561     -4274.6524      2.0126198    
   1975000   308.15538     -7999.1026      1147.5089     -4196.9765      47.559137    
   1980000   299.13994     -7975.455       1125.8026     -4272.6991     -50.276249    
   1985000   299.11903     -7963.1503      1107.6718     -4278.7053     -15.541987    
   1990000   297.37752     -8004.1051      1194.0701     -4248.2641     -11.924198    
   1995000   297.24241     -7973.4364      1103.0205     -4309.8089      4.837247     
   2000000   295.02213     -8002.6615      1112.5282     -4348.6531      33.815457    
   2005000   297.71537     -7997.7624      1168.021      -4265.0601     -30.673016    
   2010000   294.91155     -8015.779       1072.4553     -4402.796      -13.46017     
   2015000   297.77963     -8023.043       1143.9006     -4313.9076      33.245295    
   2020000   301.38252     -7982.8063      1158.4691     -4228.0652      7.8341948    
   2025000   301.1305      -7953.0919      1150.899      -4208.0919     -14.66313     
   2030000   296.94928     -7964.4909      1131.1052     -4275.3039     -20.314397    
   2035000   304.85966     -7969.2012      1125.879      -4217.0962      3.3041129    
   2040000   297.95773     -7991.0866      1102.7534     -4321.5641     -19.214521    
   2045000   304.74643     -7997.0578      1152.4864     -4219.3208     -3.6116123    
   2050000   301.08802     -8031.714       1080.4905     -4357.4884     -4.9526678    
   2055000   305.95263     -7994.6656      1133.8464     -4225.1778      7.0160314    
   2060000   299.9342      -8037.3891      1194.7306     -4258.8631     -20.5934      
   2065000   295.38837     -8032.2795      1128.0708     -4359.5735     -13.799393    
   2070000   303.06074     -8002.9196      1166.5951     -4225.5954     -43.598542    
   2075000   301.83721     -7982.8517      1199.0338     -4183.6289     -46.668094    
   2080000   308.63118     -8001.4302      1155.259      -4187.4552      53.077067    
   2085000   301.5125      -8021.7602      1146.5042     -4277.8642      20.223529    
   2090000   307.09048     -8030.9141      1160.8441     -4224.6265     -9.753753     
   2095000   302.39626     -8003.763       1114.8426     -4283.9154      26.861421    
   2100000   300.33278     -8007.2419      1158.777      -4261.2359     -28.002625    
   2105000   301.71523     -7994.8837      1174.0614     -4221.6841      16.788577    
   2110000   300.51891     -8003.1424      1109.9526     -4304.3573     -20.064708    
   2115000   299.78133     -8016.4105      1140.473      -4293.459      -4.3212575    
   2120000   301.17662     -8007.1635      1100.4026     -4312.2625      30.727802    
   2125000   300.29573     -8003.8298      1115.6468     -4301.2731     -26.849446    
   2130000   295.90733     -8040.6498      1158.3941     -4333.1498     -13.014215    
   2135000   301.81841     -7998.7379      1137.3997     -4261.3111      7.4443193    
   2140000   299.42945     -8020.8364      1185.6502     -4255.7389      16.603726    
   2145000   298.79727     -8003.1654      1113.4387     -4315.7253     -26.325601    
   2150000   294.25546     -7994.8907      1127.5686     -4332.4464     -40.914582    
   2155000   303.37279     -7992.689       1101.1947     -4278.077       22.960523    
   2160000   295.18598     -8011.9159      1136.0503     -4332.9739      46.515593    
   2165000   305.51082     -7983.6858      1142.1489     -4209.7014      12.712149    
   2170000   289.95248     -8036.7395      1134.4456     -4404.4864      11.4982      
   2175000   298.81054     -7986.1829      1130.62       -4281.4472      13.10476     
   2180000   301.78279     -7991.176       1167.8419     -4223.6138      15.241792    
   2185000   301.51782     -8004.1563      1120.6785     -4286.0402     -25.770093    
   2190000   296.44462     -8004.6751      1135.8241     -4315.1166      14.908054    
   2195000   300.42529     -8000.5544      1149.2295     -4263.2989      48.847639    
   2200000   302.89035     -8006.956       1167.0746     -4230.62       -0.68771403   
   2205000   295.86786     -8003.1131      1138.7636     -4315.5837      21.342572    
   2210000   304.95483     -8010.8409      1127.6782     -4256.1168      9.4673504    
   2215000   299.21164     -8011.6611      1098.9553     -4335.1349     -22.076889    
   2220000   301.69117     -8004.8947      1158.446      -4247.5177     -9.7191288    
   2225000   303.83386     -8028.0721      1157.8558     -4252.827      -21.629685    
   2230000   293.41154     -8026.5259      1208.4853     -4290.4349      8.5928873    
   2235000   304.91709     -8030.1156      1138.4491     -4264.9457      5.993743     
   2240000   299.73186     -7998.5718      1139.0914     -4277.428       13.933885    
   2245000   302.02787     -7973.8172      1122.2575     -4249.7282     -28.426374    
   2250000   304.13452     -8002.3066      1109.1601     -4273.1672     -32.236296    
   2255000   308.88818     -8021.9914      1142.4883     -4218.5732      27.415889    
   2260000   296.87937     -7974.7111      1131.2744     -4285.9572     -4.7563165    
   2265000   298.60873     -7996.7309      1110.5162     -4313.8376     -38.416103    
   2270000   298.71242     -8008.2994      1065.691      -4369.3379      13.129177    
   2275000   304.30938     -7997.4681      1152.2161     -4223.7663      22.204267    
   2280000   299.44871     -8002.3638      1164.5011     -4258.2496      3.2946088    
   2285000   290.393       -8008.1458      1182.6491     -4323.8943     -28.709779    
   2290000   302.55211     -8042.2205      1121.953      -4313.9199      55.685549    
   2295000   298.399       -8013.76        1147.678      -4295.5117     -14.424443    
   2300000   293.81056     -8042.0969      1120.571      -4390.4828     -7.1224214    
   2305000   294.40547     -8047.2278      1142.7274     -4368.3323     -2.912062     
   2310000   301.14271     -8022.1246      1127.9972     -4299.9213     -16.668946    
   2315000   302.00861     -8027.4961      1139.1322     -4286.6983     -25.269735    
   2320000   295.87766     -8012.858       1137.9667     -4326.041       37.522119    
   2325000   308.71782     -8041.9715      1146.716      -4235.7932      3.9149883    
   2330000   295.99114     -8071.9411      1162.3371     -4359.7762     -9.7442474    
   2335000   304.40263     -8064.7512      1168.7493     -4273.7129     -1.1865521    
   2340000   296.67348     -8035.8424      1138.8459     -4341.2906      28.446472    
   2345000   296.67763     -8042.9258      1119.574      -4367.6102      45.842135    
   2350000   301.20199     -8106.9915      1119.5397     -4392.7349      36.827197    
   2355000   303.29727     -8097.1282      1078.6516     -4405.7098      16.788049    
   2360000   299.62551     -8113.631       1145.2982     -4387.1965      41.813161    
   2365000   302.62738     -8100.7243      1125.8996     -4367.8287     -22.538359    
   2370000   302.44699     -8077.7934      1176.2234     -4296.128      -17.470281    
   2375000   293.17339     -8093.6956      1133.8226     -4434.3188      5.5778721    
   2380000   299.23936     -8083.335       1144.1898     -4361.3354     -32.284468    
   2385000   302.82353     -8093.8635      1098.6927     -4386.485      -41.516207    
   2390000   302.77612     -8076.8117      1135.3734     -4333.1609     -36.326188    
   2395000   301.62938     -8074.0438      1168.8543     -4306.7908      23.090814    
   2400000   295.38763     -8058.2119      1096.1518     -4417.4312     -10.984096    
   2405000   301.18482     -8117.5447      1119.9798     -4402.9959      7.5497742    
   2410000   293.70735     -8084.6062      1140.1497     -4414.3025      6.6761696    
   2415000   298.0564      -8090.6446      1165.7086     -4357.3169      16.63511     
   2420000   307.88012     -8126.6669      1143.6766     -4330.7444      10.355042    
   2425000   291.78963     -8088.0762      1136.3225     -4438.12        39.5686      
   2430000   303.91725     -8079.556       1139.8176     -4321.6308     -7.6883354    
   2435000   300.64513     -8085.2555      1111.1242     -4384.2114     -11.170316    
   2440000   298.41725     -8094.7836      1138.308      -4385.748      -16.500946    
   2445000   293.8559      -8080.4243      1092.4235     -4456.5671      28.13932     
   2450000   298.77042     -8106.498       1118.2765     -4414.4515     -1.768555     
   2455000   301.39377     -8098.7812      1168.868      -4333.5442      6.2455901    
   2460000   295.61573     -8102.2088      1158.0357     -4397.5793      11.005572    
   2465000   293.31142     -8049.724       1129.7065     -4393.2742     -28.177725    
   2470000   301.92408     -8096.1697      1137.45       -4357.7824     -57.467675    
   2475000   303.74338     -8085.9292      1148.3766     -4320.9428      17.759584    
   2480000   295.29526     -8107.1576      1174.085      -4389.2394      23.120288    
   2485000   295.59915     -8082.1417      1128.0437     -4407.6471      9.2859189    
   2490000   297.91812     -8103.4215      1178.6736     -4358.32       -21.671753    
   2495000   303.08218     -8093.2099      1132.5218     -4349.7742      21.63853     
   2500000   310.04077     -8095.9004      1187.7194     -4237.3221     -53.744383    
   2505000   306.03452     -8093.5404      1133.87       -4323.3234     -44.478163    
   2510000   306.29551     -8079.4347      1108.6166     -4332.2228      37.541868    
   2515000   297.37194     -8058.2994      1147.3126     -4349.264      -8.5442625    
   2520000   311.09043     -8080.5007      1163.2099     -4237.3895      64.596183    
   2525000   306.72141     -8112.2672      1127.2274     -4342.7756     -17.501456    
   2530000   306.99246     -8083.7781      1122.7172     -4316.4618      16.082475    
   2535000   293.29551     -8086.3473      1150.0696     -4409.6714     -27.370095    
   2540000   304.38191     -8099.0411      1115.8079     -4361.1227     -33.727438    
   2545000   299.98511     -8108.5904      1159.325      -4365.0313      7.5331311    
   2550000   297.86651     -8133.924       1089.58       -4478.3607      13.693204    
   2555000   307.1951      -8109.2529      1161.2465     -4301.6615     -9.1577602    
   2560000   301.60775     -8112.6829      1146.0315     -4368.439      -9.7437974    
   2565000   294.71124     -8113.0292      1154.5429     -4419.6842      12.353977    
   2570000   298.79704     -8145.3891      1133.0368     -4438.353      -9.721267     
   2575000   300.05495     -8138.7798      1082.8906     -4471.0535     -19.934211    
   2580000   301.68892     -8128.9882      1161.5506     -4368.526       6.1762446    
   2585000   300.48836     -8158.8549      1132.2885     -4437.9971     -13.945186    
   2590000   301.75235     -8143.7696      1135.2004     -4409.1113     -2.9117192    
   2595000   298.55726     -8110.5113      1120.5998     -4417.9777     -15.600311    
   2600000   304.34455     -8137.434       1135.6957     -4379.9496     -26.574142    
   2605000   297.14194     -8139.2582      1123.0525     -4456.4643     -24.649446    
   2610000   297.37429     -8170.3084      1158.3396     -4450.2258     -4.1517189    
   2615000   301.46373     -8165.8313      1109.1915     -4459.6681      32.427545    
   2620000   301.50159     -8133.7944      1114.7118     -4421.7848     -3.1296193    
   2625000   299.26513     -8180.2532      1122.3459     -4479.8756      40.333374    
   2630000   297.25151     -8139.4893      1175.0024     -4403.8015     -7.9396663    
   2635000   306.01005     -8172.8807      1165.6984     -4371.0462     -48.350383    
   2640000   292.70204     -8129.5024      1118.1989     -4489.8098     -11.737651    
   2645000   299.03084     -8095.8713      1131.585      -4388.273       3.2243753    
   2650000   300.78552     -8160.2145      1131.7231     -4437.3622      22.220307    
   2655000   293.08184     -8140.6541      1087.7196     -4528.169       18.036502    
   2660000   301.12314     -8128.784       1113.8767     -4420.8696      27.258708    
   2665000   297.56519     -8138.7441      1185.6189     -4389.7377      27.466128    
   2670000   296.20623     -8140.1245      1132.7952     -4455.6486      20.648479    
   2675000   301.23459     -8157.5859      1054.9202     -4507.668      -3.8225921    
   2680000   293.68027     -8112.6905      1117.6743     -4465.0954      42.386863    
   2685000   311.95172     -8169.2736      1167.7073     -4314.2454      8.4502333    
   2690000   302.55068     -8149.7635      1144.2046     -4399.2236      12.666101    
   2695000   299.99109     -8144.4167      1127.3227     -4432.8084     -12.575311    
   2700000   306.45134     -8163.0372      1139.6682     -4383.4314      44.810922    
   2705000   296.61591     -8148.022       1134.6404     -4458.1717     -23.363319    
   2710000   301.4523      -8130.4922      1079.5773     -4454.0417     -8.8024677    
   2715000   298.59231     -8155.3146      1109.0388     -4474.0401     -2.168026     
   2720000   293.5615      -8162.4448      1183.7713     -4449.776       15.200282    
   2725000   296.90285     -8157.1633      1102.3575     -4497.124       15.082364    
   2730000   306.48676     -8154.7338      1111.7183     -4402.7727     -37.899913    
   2735000   292.28752     -8149.6008      1161.8122     -4469.8658      31.148319    
   2740000   291.42535     -8149.1097      1091.9137     -4546.7004      9.6389771    
   2745000   298.918       -8157.8541      1144.6495     -4438.1632     -28.915693    
   2750000   294.03875     -8139.728       1127.8783     -4478.8409      14.218826    
   2755000   304.44274     -8149.6639      1142.9126     -4384.1168     -6.164809     
   2760000   301.87727     -8173.1875      1070.7917     -4501.8617      5.4363082    
   2765000   301.18003     -8147.7188      1215.1856     -4338.0055     -13.366575    
   2770000   305.54073     -8152.339       1135.3257     -4384.9202      8.7561812    
   2775000   301.35287     -8155.749       1128.4926     -4431.2397     -24.633205    
   2780000   305.66635     -8168.4851      1109.442      -4425.8678     -39.110147    
   2785000   301.25499     -8154.2019      1117.464      -4441.5645      43.022349    
   2790000   293.6872      -8121.5145      1094.4761     -4497.0579      43.128719    
   2795000   304.06072     -8164.659       1127.7542     -4417.5613      8.7839212    
   2800000   305.11877     -8169.4361      1105.9126     -4435.0654     -18.584176    
   2805000   306.30218     -8141.7804      1159.8495     -4343.2783     -29.748303    
   2810000   299.3422      -8154.3663      1124.3733     -4451.2974     -7.3689534    
   2815000   293.96022     -8161.753       1185.5863     -4443.8343     -7.607919     
   2820000   300.677       -8176.2519      1175.8196     -4410.238      -13.274207    
   2825000   297.0228      -8181.5132      1138.6838     -4484.1142     -24.27695     
   2830000   293.1365      -8165.3091      1102.3926     -4537.6801      6.5952126    
   2835000   303.25829     -8141.6065      1148.7685     -4380.407      -0.7725416    
   2840000   302.02165     -8164.6645      1127.89       -4434.9966     -2.4059861    
   2845000   301.9078      -8172.3134      1100.1002     -4471.4161      10.238273    
   2850000   299.14804     -8150.0116      1082.0334     -4490.9551      5.2905756    
   2855000   299.29504     -8193.758       1136.2136     -4479.2551      10.555933    
   2860000   296.96953     -8174.2115      1101.5275     -4514.4278      58.599829    
   2865000   299.09827     -8138.9233      1144.2643     -4418.0647      1.1491322    
   2870000   302.03435     -8178.7757      1121.8775     -4455.0109     -2.4933875    
   2875000   298.26686     -8153.2124      1126.3726     -4457.4077      17.360891    
   2880000   309.46835     -8148.0762      1135.8607     -4346.2878      9.3841139    
   2885000   289.10728     -8168.344       1181.1088     -4496.7086     -14.998163    
   2890000   303.47648     -8175.5708      1161.3133     -4399.9469      22.514194    
   2895000   301.18443     -8175.3024      1124.8674     -4455.8693      7.7085361    
   2900000   297.78892     -8173.4314      1179.6468     -4428.4698      10.25825     
   2905000   305.91511     -8167.6034      1098.7742     -4433.5109     -9.581923     
   2910000   303.02154     -8162.5413      1117.4468     -4434.703       11.29227     
   2915000   301.40801     -8181.0346      1058.5941     -4525.9488      26.108108    
   2920000   297.20568     -8168.1787      1105.9205     -4501.9676      44.351805    
   2925000   297.2242      -8159.6733      1091.5108     -4507.7125     -11.177362    
   2930000   295.23872     -8185.1555      1144.0507     -4497.7587      31.286191    
   2935000   300.21182     -8168.1495      1135.5011     -4446.4615      15.631637    
   2940000   302.37396     -8189.2113      1152.8959     -4431.5026      27.282259    
   2945000   292.6885      -8141.3177      1146.1064     -4473.8342     -52.059666    
   2950000   296.80931     -8185.9358      1183.8077     -4445.2522      73.406854    
   2955000   295.29581     -8177.4722      1153.4587     -4480.1756     -66.610147    
   2960000   303.51617     -8207.1737      1126.1837     -4466.3375     -26.38625     
   2965000   302.37253     -8165.2161      1123.085      -4437.3305      21.325622    
   2970000   296.61653     -8184.3053      1111.4289     -4517.6612      2.8809178    
   2975000   294.34965     -8159.5036      1125.4083     -4498.4081     -8.9595898    
   2980000   299.57109     -8163.0882      1084.6008     -4497.82       -9.1717257    
   2985000   297.29253     -8144.5441      1110.2361     -4473.2693      20.381831    
   2990000   300.27107     -8165.952       1169.1939     -4410.0607      25.673312    
   2995000   307.78478     -8182.5054      1165.5478     -4365.5329     -23.172581    
   3000000   305.24528     -8164.5395      1111.8583     -4423.1332      23.269944    
   3005000   299.14741     -8177.2602      1147.457      -4452.7856     -28.945811    
   3010000   301.22683     -8209.2906      1132.6749     -4481.6848     -33.023857    
   3015000   293.95056     -8175.3629      1099.9227     -4543.191      -4.0087759    
   3020000   300.7096      -8173.5602      1126.3281     -4456.7569     -24.790208    
   3025000   299.64727     -8154.0882      1143.9424     -4428.8221      21.829936    
   3030000   291.03963     -8149.6439      1109.5271     -4532.9439      33.659665    
   3035000   296.17452     -8216.1864      1129.5415     -4535.2374     -7.9752224    
   3040000   298.27892     -8176.0588      1079.6452     -4526.8777      9.073276     
   3045000   303.40082     -8230.4529      1118.6741     -4498.12       -13.907611    
   3050000   291.92391     -8197.7494      1158.3855     -4524.5733     -39.297888    
   3055000   299.63708     -8149.5661      1123.3817     -4444.9485      59.538631    
   3060000   301.45663     -8181.9835      1099.4464     -4485.6266      32.066828    
   3065000   304.0034      -8185.0643      1131.7502     -4434.4643     -3.4558852    
   3070000   305.61001     -8165.8369      1123.1714     -4409.9756      18.33569     
   3075000   303.25814     -8173.0159      1153.0924     -4407.4938     -15.917225    
   3080000   302.2586      -8167.5365      1121.1645     -4442.5529      8.2092875    
   3085000   301.19597     -8170.2759      1136.2737     -4439.3372      2.1664566    
   3090000   307.73227     -8157.6458      1100.5933     -4406.0802     -6.9253232    
   3095000   301.45992     -8172.8143      1150.2412     -4425.6343      4.29114      
   3100000   295.87379     -8182.9082      1136.9532     -4497.138       38.757822    
   3105000   301.57553     -8187.8729      1152.0467     -4437.8914      10.922679    
   3110000   303.76203     -8191.9726      1130.1772     -4445.025       25.847325    
   3115000   304.76623     -8172.3514      1115.921      -4431.0091      31.387583    
   3120000   294.72699     -8187.5491      1092.5703     -4556.041      -22.176877    
   3125000   308.33284     -8170.9591      1083.2353     -4431.5779     -22.76221     
   3130000   301.6697      -8189.8808      1114.4661     -4476.6687      51.409395    
   3135000   298.19984     -8217.9215      1164.7795     -4484.2873     -21.780566    
   3140000   297.47017     -8188.8154      1105.7014     -4520.545       2.9090707    
   3145000   304.93949     -8177.6398      1158.8383     -4391.8877      20.372975    
   3150000   302.25252     -8198.1142      1151.7238     -4442.6237     -12.387727    
   3155000   295.47817     -8193.2318      1107.0703     -4540.7527     -60.373669    
   3160000   299.17087     -8156.7267      1137.2494     -4442.2576      21.850411    
   3165000   298.31862     -8207.7029      1139.0226     -4498.8023      1.48788      
   3170000   301.80931     -8271.6787      1165.9827     -4505.7472      42.331929    
   3175000   295.79458     -8227.1969      1134.7441     -4544.3182      54.051455    
   3180000   296.82666     -8247.461       1142.5411     -4547.8944      9.2755141    
   3185000   300.38915     -8227.3977      1142.5984     -4497.0846     -21.628856    
   3190000   303.2863      -8231.3337      1121.7014     -4496.96       -7.7160189    
   3195000   308.47689     -8244.3056      1096.7372     -4490.1816      15.345005    
   3200000   306.28617     -8263.9729      1132.4309     -4493.0272      5.2490839    
   3205000   305.27342     -8244.9558      1121.0336     -4494.1318     -1.4602661    
   3210000   301.35737     -8228.4434      1146.3813     -4486.0067      2.3584001    
   3215000   298.10919     -8267.0469      1153.1705     -4545.8025      18.640644    
   3220000   297.72437     -8245.2184      1115.0528     -4565.4068      6.6505526    
   3225000   303.52173     -8240.7976      1117.3439     -4508.7532     -6.2042597    
   3230000   301.552       -8242.0348      1111.4596     -4532.843      -6.0549385    
   3235000   302.05869     -8235.4201      1118.5926     -4514.7304     -20.067605    
   3240000   298.14726     -8252.2116      1175.769      -4508.0408     -19.66995     
   3245000   295.48323     -8253.4597      1121.0843     -4586.9229     -9.4321058    
   3250000   298.70789     -8289.5288      1132.4601     -4583.8373     -14.36354     
   3255000   304.72538     -8233.5873      1142.4829     -4466.0351     -16.862855    
   3260000   294.19235     -8260.7082      1090.7885     -4635.5877     -0.89363856   
   3265000   300.67532     -8266.4221      1075.3116     -4600.9306     -13.740722    
   3270000   301.15075     -8268.006       1156.368      -4517.3626      5.5410788    
   3275000   300.01319     -8255.0426      1107.5952     -4562.9714      14.307765    
   3280000   309.11928     -8224.3038      1093.9558     -4467.4273      31.097229    
   3285000   305.19581     -8265.9014      1154.794      -4481.9856      12.120507    
   3290000   305.42737     -8238.4375      1105.242      -4502.0789      18.252412    
   3295000   296.07147     -8260.8117      1136.9516     -4573.3402      8.6225572    
   3300000   302.06794     -8240.338       1114.4626     -4523.6987     -20.270356    
   3305000   295.51408     -8218.4102      1169.5514     -4503.1406     -8.2688615    
   3310000   302.03637     -8274.4769      1124.0226     -4548.5496      1.2677142    
   3315000   298.22781     -8293.3468      1102.8327     -4621.4184      12.358216    
   3320000   294.36844     -8258.9449      1173.8805     -4549.2154      8.1491734    
   3325000   305.64833     -8273.4826      1138.3569     -4502.1056     -2.8897759    
   3330000   295.71158     -8273.5826      1088.1732     -4637.9898      10.172844    
   3335000   300.62139     -8297.505       1101.3529     -4606.4368      36.329129    
   3340000   292.46678     -8291.3565      1084.9189     -4686.9704     -47.07648     
   3345000   298.21989     -8291.1545      1081.3356     -4640.7915      0.080871873  
   3350000   301.27954     -8278.4551      1142.2351     -4540.8351      1.3424724    
   3355000   302.60248     -8282.6895      1134.8012     -4541.1068     -9.5412664    
   3360000   309.11511     -8297.5218      1169.4605     -4465.1765     -38.924641    
   3365000   295.08146     -8305.5573      1097.8403     -4665.7256     -20.845187    
   3370000   294.90914     -8276.1633      1133.9484     -4601.708       72.857688    
   3375000   299.34854     -8292.8406      1119.9644     -4594.1259     -17.998133    
   3380000   304.43235     -8309.0088      1161.5643     -4524.8996      31.148706    
   3385000   299.42876     -8317.5747      1083.157      -4654.9763      10.292644    
   3390000   306.92365     -8293.5457      1119.892      -4529.6473      29.871142    
   3395000   302.58498     -8303.9002      1097.9195     -4599.35       -38.752393    
   3400000   297.2443      -8308.0677      1142.9166     -4604.5279     -14.97386     
   3405000   302.71526     -8329.9307      1130.7603     -4591.4174     -12.546147    
   3410000   299.91591     -8289.6109      1152.8334     -4553.1396      7.9924139    
   3415000   308.94577     -8321.8136      1185.8808     -4474.5068     -12.195469    
   3420000   293.32808     -8313.1841      1188.1073     -4598.1899      12.75651     
   3425000   307.65369     -8301.4412      1151.1592     -4499.9866      32.338448    
   3430000   301.55652     -8299.4765      1116.7996     -4584.9059      46.936198    
   3435000   300.51487     -8272.6708      1144.4305     -4539.4427     -6.1401594    
   3440000   299.50114     -8281.2308      1133.0869     -4568.0791     -12.3687      
   3445000   298.31887     -8305.7534      1125.2198     -4610.6534      9.9948365    
   3450000   300.50636     -8308.2465      1098.8945     -4620.6277     -0.014865375  
   3455000   296.32395     -8303.1742      1112.9906     -4637.4888     -26.165436    
   3460000   298.72627     -8266.9201      1126.6403     -4566.8901      34.825825    
   3465000   299.75385     -8323.322       1161.1529     -4579.9273      28.86283     
   3470000   289.50613     -8288.4422      1123.5431     -4670.9368      15.99711     
   3475000   305.09418     -8328.1591      1173.8543     -4526.0585      8.3927157    
   3480000   303.08004     -8279.4013      1157.0703     -4511.4356     -8.1855808    
   3485000   301.51525     -8302.4349      1099.5173     -4605.5021     -3.3873389    
   3490000   292.8139      -8296.2959      1111.338      -4662.5006     -14.220388    
   3495000   297.9044      -8306.2587      1183.7678     -4556.1812     -32.072853    
   3500000   298.13121     -8314.8734      1150.508      -4596.1019     -41.971221    
   3505000   295.92626     -8300.7654      1145.2262     -4606.2703      20.915401    
   3510000   294.58935     -8296.2254      1096.5029     -4661.9705     -11.862486    
   3515000   296.56122     -8278.2739      1117.7305     -4605.8046     -35.85673     
   3520000   303.22085     -8311.4176      1119.6726     -4579.6366      17.214564    
   3525000   303.68131     -8260.5821      1107.8946     -4536.6124     -25.486793    
   3530000   304.34005     -8283.3143      1158.7734     -4502.791       15.800762    
   3535000   304.05306     -8268.3722      1096.5732     -4552.5214     -0.25509288   
   3540000   305.25069     -8309.983       1108.028      -4572.3603     -12.070451    
   3545000   300.094       -8268.4355      1103.9682     -4579.2952     -13.326556    
   3550000   300.66516     -8301.9381      1112.4327     -4599.4131     -35.779425    
   3555000   302.30251     -8321.499       1111.6178     -4605.6839      14.446542    
   3560000   293.57966     -8349.2119      1113.7055     -4706.4524      29.230577    
   3565000   300.75476     -8341.3292      1090.8333     -4659.6317     -5.6970161    
   3570000   302.04863     -8304.3525      1157.5636     -4544.7786      53.376942    
   3575000   298.66748     -8354.9381      1158.6684     -4623.3864     -10.240477    
   3580000   295.78191     -8353.5461      1139.2689     -4666.2518      31.879949    
   3585000   302.45689     -8346.4642      1131.2351     -4609.7019      14.6926      
   3590000   294.90362     -8333.981       1082.3694     -4711.1522      8.354226     
   3595000   303.36425     -8345.7278      1106.8538     -4625.5301      17.49274     
   3600000   302.54894     -8329.1378      1096.8328     -4625.9848     -1.2195393    
   3605000   298.24686     -8343.2593      1119.0625     -4654.937      -26.722675    
   3610000   301.20522     -8359.1041      1105.7073     -4658.6521      38.006456    
   3615000   303.95532     -8336.5667      1147.0404     -4571.0907     -4.8584796    
   3620000   301.27554     -8319.6639      1089.2399     -4635.0734      8.5812606    
   3625000   301.36122     -8361.6788      1107.5034     -4658.0868      11.579219    
   3630000   301.43555     -8309.2965      1158.8917     -4553.6759     -4.7338655    
   3635000   291.12865     -8334.7745      1139.5717     -4687.2631      9.6872029    
   3640000   299.84194     -8365.6537      1184.0877     -4598.5654     -8.3281843    
   3645000   292.65339     -8325.584       1109.5362     -4694.9732     -35.607498    
   3650000   297.44482     -8350.9371      1143.7173     -4644.8691      58.121014    
   3655000   301.4149      -8338.6307      1123.6049     -4618.4748      2.9417323    
   3660000   299.30378     -8320.1525      1131.6806     -4610.1072     -7.8035062    
   3665000   300.17911     -8345.2893      1079.2017     -4680.1822      37.807095    
   3670000   294.59035     -8363.4245      1123.4452     -4702.2187     -27.229798    
   3675000   297.12236     -8302.8649      1094.3028     -4648.9893      0.05592887   
   3680000   294.24792     -8363.8602      1141.0886     -4687.9608     -16.766119    
   3685000   299.43309     -8308.4353      1081.3351     -4647.6216      34.769723    
   3690000   296.15348     -8342.2065      1172.596      -4618.3842     -4.836918     
   3695000   295.52917     -8374.5729      1151.8705     -4676.8542     -24.960002    
   3700000   305.33338     -8349.7706      1140.935      -4578.5286      0.28821258   
   3705000   299.41937     -8362.4831      1090.6205     -4692.5021     -31.549673    
   3710000   304.83906     -8318.128       1110.4405     -4581.6389     -8.7230438    
   3715000   299.54672     -8338.3019      1149.6958     -4608.1486     -5.8532145    
   3720000   302.2666      -8368.2732      1156.0014     -4608.3837      60.32479     
   3725000   298.88481     -8345.3323      1130.795      -4639.7819      8.5583678    
   3730000   291.18037     -8364.7546      1117.2137     -4739.1556      27.731047    
   3735000   308.77167     -8336.4701      1143.477      -4533.0669      28.521464    
   3740000   300.30989     -8340.3552      1141.2185     -4612.1048      34.955407    
   3745000   290.79385     -8372.9874      1117.0195     -4750.9123     -8.9969675    
   3750000   296.02964     -8357.6725      1153.6454     -4653.8677     -4.2477944    
   3755000   301.86482     -8361.817       1114.7468     -4646.6433      49.595414    
   3760000   295.72823     -8352.5293      1112.1925     -4692.7738     -17.507757    
   3765000   300.50593     -8338.557       1115.7492     -4634.0872      2.5495656    
   3770000   302.11467     -8344.3938      1115.2324     -4626.5821      23.96807     
   3775000   294.97619     -8355.5925      1157.4546     -4657.0534     -31.212832    
   3780000   300.91937     -8343.4738      1106.3093     -4644.8822     -33.486887    
   3785000   300.90674     -8356.0109      1092.8684     -4670.969      -12.984167    
   3790000   302.90372     -8365.687       1141.5436     -4614.7669      4.2484949    
   3795000   298.48076     -8364.7747      1129.8773     -4663.6226     -10.672765    
   3800000   292.86436     -8313.5072      1117.0023     -4673.6128     -32.865601    
   3805000   303.88273     -8375.8795      1169.1894     -4588.8799      2.739237     
   3810000   294.06289     -8374.5855      1123.2864     -4718.0822     -13.781577    
   3815000   304.59188     -8364.6411      1127.3702     -4613.3516     -26.452663    
   3820000   302.37558     -8384.4372      1110.4234     -4669.187      -20.11279     
   3825000   291.40417     -8319.8763      1148.6315     -4660.9316     -13.075927    
   3830000   306.19922     -8392.1315      1159.746      -4594.6198      34.574671    
   3835000   296.49551     -8381.8795      1179.0817     -4648.6251     -22.854764    
   3840000   304.07496     -8337.7292      1160.2526     -4558.0103     -28.626794    
   3845000   298.40095     -8361.3613      1123.7939     -4666.9802     -42.32419     
   3850000   298.68349     -8338.6049      1136.1139     -4629.4698     -19.535002    
   3855000   299.96791     -8367.1763      1161.5321     -4621.5583     -5.0058151    
   3860000   296.37524     -8384.4578      1093.6941     -4737.627       7.8761       
   3865000   300.83401     -8346.1729      1123.0527     -4631.5733     -22.172014    
   3870000   294.72831     -8373.5051      1118.3302     -4716.2258      36.82977     
   3875000   300.30612     -8366.0673      1187.2501     -4591.8178      20.231605    
   3880000   299.12589     -8361.6223      1106.1194     -4678.6706     -8.3177283    
   3885000   297.61852     -8342.867       1112.1915     -4666.8285     -24.052703    
   3890000   297.40316     -8395.8249      1074.8576     -4758.9756      0.41210155   
   3895000   301.68586     -8387.1245      1162.7866     -4625.4527     -23.539627    
   3900000   300.15917     -8355.5929      1140.3569     -4629.5026      34.230006    
   3905000   300.97209     -8357.6902      1149.5921     -4615.3617     -46.466822    
   3910000   298.22563     -8358.0223      1175.5638     -4613.3815      31.555424    
   3915000   298.7663      -8339.5782      1120.5801     -4645.2636     -7.3382251    
   3920000   298.99008     -8347.0171      1120.2787     -4651.0761      20.76727     
   3925000   308.94886     -8344.3421      1182.2785     -4500.6109     -3.2136765    
   3930000   309.15865     -8328.1676      1127.014      -4537.8937      32.442989    
   3935000   294.7775      -8370.2056      1183.5423     -4647.2904     -18.608842    
   3940000   296.38189     -8347.3033      1093.8502     -4700.2592      35.545267    
   3945000   302.70173     -8350.8797      1120.5907     -4622.6525     -42.156674    
   3950000   305.39324     -8383.3838      1069.8659     -4682.6952     -31.084619    
   3955000   301.61347     -8348.8273      1134.9069     -4615.6588     -20.423709    
   3960000   297.23505     -8335.9803      1136.5971     -4638.8397     -0.26693582   
   3965000   302.29726     -8344.2252      1166.3654     -4573.7076     -1.6211669    
   3970000   299.6828      -8335.6006      1100.3202     -4653.6505      4.6770198    
   3975000   291.60387     -8390.9497      1109.789      -4769.1272      60.69777     
   3980000   305.67175     -8351.8205      1148.9526     -4569.646      -12.028616    
   3985000   295.13532     -8360.9815      1151.5412     -4666.9849     -24.259626    
   3990000   297.16824     -8398.4511      1140.114      -4698.3691      14.392142    
   3995000   303.08269     -8348.3837      1179.0801     -4558.3853      18.423856    
   4000000   304.0864      -8382.4925      1109.3382     -4653.5895      8.0740674    
   4005000   306.57377     -8360.0475      1063.0236     -4656.0316      15.319904    
   4010000   298.02748     -8378.9069      1087.5774     -4723.9594      46.480578    
   4015000   301.5778      -8304.5236      1122.0579     -4584.5113      2.9072842    
   4020000   300.97829     -8353.5499      1158.7926     -4601.9674      10.887987    
   4025000   293.35136     -8327.9512      1160.1536     -4640.7103      31.10485     
   4030000   303.80697     -8370.0356      1145.7274     -4607.1506     -9.8669108    
   4035000   301.01065     -8353.5388      1116.3858     -4644.0843     -48.301229    
   4040000   304.10758     -8341.6048      1115.7765     -4606.0811     -14.47902     
   4045000   295.6974      -8375.978       1135.0692     -4693.6114     -11.202949    
   4050000   300.81873     -8381.4207      1109.3221     -4680.6833     -42.176923    
   4055000   306.10817     -8348.735       1129.1262     -4582.6274      4.244002     
   4060000   298.89906     -8371.1745      1148.2377     -4648.0585      23.164625    
   4065000   296.46462     -8344.5371      1156.8743     -4633.7562      3.5965692    
   4070000   301.65902     -8380.4193      1164.4026     -4617.3627      3.1709801    
   4075000   299.76337     -8381.0668      1118.5369     -4680.2061      27.09117     
   4080000   293.80692     -8361.1876      1116.1787     -4713.9971      3.2131069    
   4085000   302.8176      -8371.9572      1097.2286     -4666.094       2.7025006    
   4090000   298.66774     -8397.3836      1136.5183     -4687.9798     -3.4921782    
   4095000   298.86157     -8375.0674      1167.795      -4632.7171      12.932342    
   4100000   308.94834     -8368.0628      1075.4831     -4631.1316      45.726748    
   4105000   301.23401     -8348.2851      1159.3893     -4593.903       17.83559     
   4110000   303.81314     -8341.1606      1154.8731     -4569.0767     -13.439838    
   4115000   306.54862     -8366.503       1114.1738     -4611.5535     -0.76522512   
   4120000   299.5403      -8361.6712      1120.6141     -4660.6549     -19.024425    
   4125000   297.557       -8355.8097      1137.3454     -4655.1473      44.107787    
   4130000   295.96607     -8340.7626      1127.8377     -4663.313       50.846629    
   4135000   303.74254     -8350.7824      1128.9043     -4605.2755      21.004987    
   4140000   304.24129     -8361.5787      1105.5296     -4635.15        30.799394    
   4145000   298.46255     -8398.0303      1102.4455     -4724.4669     -30.184967    
   4150000   292.03382     -8379.0975      1114.0117     -4749.3485     -15.0236      
   4155000   301.69527     -8350.3001      1127.0752     -4624.2586     -30.106984    
   4160000   297.8151      -8331.6191      1124.7339     -4641.3448      46.320259    
   4165000   301.6856      -8341.8387      1139.1774     -4603.7784      49.395082    
   4170000   298.74847     -8333.9743      1137.5935     -4622.7998     -24.92792     
   4175000   303.4413      -8411.4132      1142.1891     -4655.2165      37.175142    
   4180000   298.95152     -8382.2664      1164.485      -4642.4513      23.293648    
   4185000   301.37698     -8429.9867      1111.1302     -4722.6322     -25.29326     
   4190000   300.55582     -8367.5772      1115.5279     -4662.8989      8.503578     
   4195000   313.51716     -8386.5568      1153.2342     -4532.5162     -8.8919436    
   4200000   298.29003     -8387.905       1168.1107     -4650.1626      17.590774    
   4205000   296.55409     -8361.4525      1144.5753     -4662.1997      2.4377768    
   4210000   304.74809     -8370.9743      1129.7825     -4615.9269     -16.929415    
   4215000   298.69433     -8375.6101      1158.0842     -4644.4113      19.766185    
   4220000   301.34633     -8396.5431      1158.9835     -4641.5993      23.243428    
   4225000   298.9657      -8386.0115      1155.6607     -4654.8985      0.50454519   
   4230000   302.38785     -8321.4844      1121.0463     -4595.5056     -3.3778447    
   4235000   306.97721     -8350.381       1110.2476     -4595.6656      5.262499     
   4240000   296.52634     -8404.2812      1138.1971     -4711.6458     -28.916284    
   4245000   298.77655     -8344.4285      1102.9104     -4667.6952     -9.2411094    
   4250000   306.29101     -8360.8906      1133.9385     -4588.3957     -19.265495    
   4255000   292.79208     -8372.3224      1107.8891     -4742.1639      4.8610375    
   4260000   301.25559     -8409.7417      1105.9827     -4708.5803     -3.7576012    
   4265000   303.23367     -8363.0224      1098.5715     -4652.232       8.7545053    
   4270000   295.3531      -8360.4192      1109.021      -4707.0668     -28.174819    
   4275000   305.43182     -8395.9151      1149.0993     -4615.6609     -2.9034657    
   4280000   293.08481     -8363.9357      1136.9685     -4702.1761     -8.1354826    
   4285000   295.45095     -8354.6128      1098.8738     -4710.5647     -23.412098    
   4290000   309.68593     -8380.0964      1105.3406     -4606.9537      38.667225    
   4295000   292.94138     -8406.7028      1162.0436     -4721.1036     -11.46626     
   4300000   301.90848     -8374.5947      1148.8102     -4624.9815     -7.9848743    
   4305000   303.30687     -8410.7188      1118.0835     -4679.7858     -3.9862887    
   4310000   295.581       -8363.8022      1113.0594     -4704.4482      7.7660472    
   4315000   299.44409     -8405.5152      1114.2085     -4711.7333      12.162807    
   4320000   297.99063     -8393.8713      1138.2572     -4688.5616     -20.568517    
   4325000   300.33087     -8382.3788      1111.0452     -4684.121       5.7660024    
   4330000   293.0684      -8390.3924      1142.7838     -4722.9588     -15.509041    
   4335000   310.47642     -8398.545       1124.8445     -4599.0886     -32.352128    
   4340000   307.07092     -8384.5514      1085.0291     -4654.2473     -27.369145    
   4345000   306.02079     -8385.315       1104.1745     -4644.9118     -22.624456    
   4350000   301.89841     -8374.6371      1102.8317     -4671.0892      2.352484     
   4355000   295.81502     -8365.188       1087.6837     -4729.1937     -3.7989329    
   4360000   302.63078     -8402.5399      1093.1692     -4702.3455     -11.913659    
   4365000   302.25069     -8469.0953      1132.6754     -4732.6689     -35.576862    
   4370000   297.3445      -8422.1362      1083.4015     -4777.2483      24.64979     
   4375000   305.25736     -8434.4534      1149.3702     -4655.4312      15.724582    
   4380000   307.5637      -8453.8765      1159.249      -4645.1073     -22.701078    
   4385000   305.69827     -8439.2618      1142.0288     -4663.7827      47.504483    
   4390000   292.15308     -8444.1539      1130.4394     -4796.9498      6.4370726    
   4395000   299.84282     -8434.7144      1127.1419     -4724.5643     -44.437646    
   4400000   304.37838     -8443.5874      1090.737      -4730.7703     -12.697466    
   4405000   305.05306     -8414.6119      1088.3872     -4698.3326      35.356305    
   4410000   295.194       -8422.9603      1093.6225     -4786.377       22.860428    
   4415000   304.88159     -8429.8221      1073.5342     -4729.8729     -4.5650747    
   4420000   303.76461     -8460.6677      1132.1777     -4711.6972     -37.119789    
   4425000   296.724       -8458.8712      1124.7908     -4777.9393      29.945768    
   4430000   292.96928     -8463.395       1113.384      -4826.2152     -42.559675    
   4435000   295.70417     -8425.4497      1138.635      -4739.459      -10.580064    
   4440000   300.70809     -8438.9177      1105.0822     -4743.3733      33.489647    
   4445000   295.96146     -8452.4179      1145.1842     -4757.6615      35.462799    
   4450000   298.28341     -8445.1341      1117.3433     -4758.2162      11.085691    
   4455000   289.97831     -8460.5826      1120.1879     -4842.3647     -20.505759    
   4460000   303.68473     -8436.6852      1146.703      -4673.8777     -0.65735908   
   4465000   292.61141     -8435.5798      1140.4874     -4774.3794      5.470566     
   4470000   300.27742     -8424.5856      1117.0305     -4720.8029      24.719005    
   4475000   300.49009     -8429.2724      1118.5546     -4722.1335      83.921114    
   4480000   295.12308     -8462.1488      1154.515      -4765.2839      19.313576    
   4485000   300.56532     -8478.7147      1128.7927     -4760.6897     -11.253825    
   4490000   305.37385     -8459.9557      1141.6566     -4687.6436      14.468642    
   4495000   302.39782     -8491.3544      1152.4253     -4733.9106     -14.330468    
   4500000   301.68592     -8480.7253      1108.978      -4772.8615      8.6461082    
   4505000   297.24012     -8472.1287      1110.0754     -4801.4661      20.825997    
   4510000   304.70029     -8480.1833      1091.1655     -4764.1646      7.6423071    
   4515000   300.07113     -8439.7049      1111.3559     -4743.3739     -8.1831737    
   4520000   305.42656     -8458.9537      1088.5507     -4739.2935      33.701635    
   4525000   299.52599     -8471.6067      1120.5469     -4770.7809      3.7167637    
   4530000   304.41458     -8429.1952      1121.3257     -4685.4775      66.663972    
   4535000   307.31476     -8451.0529      1111.4585     -4692.2188      26.47421     
   4540000   296.60357     -8443.1517      1091.2439     -4796.8042      26.226168    
   4545000   301.1478      -8468.0086      1122.9102     -4750.8483      7.7231279    
   4550000   303.36338     -8471.6865      1145.712      -4712.6382     -8.7253114    
   4555000   299.97373     -8487.5729      1142.3658     -4761.071      -7.5217054    
   4560000   298.539       -8446.1126      1124.3965     -4749.9395     -24.090529    
   4565000   302.86485     -8461.4011      1100.764      -4751.5954      31.988455    
   4570000   304.3997      -8449.6118      1114.5302     -4712.8178     -2.9959742    
   4575000   293.74275     -8419.7942      1112.3101     -4777.0252      5.0987173    
   4580000   298.64292     -8439.1399      1111.0018     -4755.4664      21.631681    
   4585000   303.79637     -8496.9182      1102.1585     -4777.6935      9.8798838    
   4590000   303.36539     -8460.3427      1117.1137     -4729.8754      2.7296945    
   4595000   295.72665     -8459.5852      1137.0588     -4774.977       18.121189    
   4600000   294.70727     -8448.8482      1096.088      -4813.9924     -27.581435    
   4605000   298.8315      -8477.0529      1107.4411     -4795.3157     -65.828604    
   4610000   297.16914     -8466.3487      1095.8481     -4810.5249     -20.518025    
   4615000   305.84773     -8450.7234      1128.8307     -4687.1548      10.498721    
   4620000   300.96612     -8475.0688      1096.1031     -4786.2807     -13.990628    
   4625000   294.27531     -8464.1277      1117.4174     -4811.6636      12.169433    
   4630000   296.35415     -8507.589       1092.0448     -4862.5892     -27.197879    
   4635000   297.16663     -8469.6047      1163.2932     -4746.3574     -4.7510062    
   4640000   304.29571     -8483.8439      1134.1532     -4728.3228      3.2020911    
   4645000   298.80267     -8442.2463      1109.5084     -4758.6901      54.5064      
   4650000   296.7848      -8467.9277      1046.8487     -4864.4142     -9.8479414    
   4655000   298.19046     -8475.0241      1138.0982     -4768.1519     -28.29102     
   4660000   293.78069     -8444.2024      1127.0557     -4786.3608      0.26426392   
   4665000   304.37744     -8454.8627      1101.0398     -4731.7509      29.104465    
   4670000   306.30167     -8453.0454      1128.3594     -4686.0377      9.1216528    
   4675000   294.64917     -8470.7006      1134.6444     -4797.7887      1.577314     
   4680000   303.09721     -8422.0808      1132.8144     -4678.223      -20.153851    
   4685000   308.13616     -8463.7611      1141.3578     -4667.9518     -6.9743532    
   4690000   308.44615     -8444.007       1114.0627     -4672.8223     -41.488386    
   4695000   302.22359     -8456.831       1111.1922     -4742.1213     -28.453633    
   4700000   301.57298     -8448.0037      1101.6009     -4748.49       -18.533142    
   4705000   302.96999     -8486.086       1123.0516     -4753.087       25.709245    
   4710000   301.51855     -8421.0301      1113.7064     -4709.8797     -25.382862    
   4715000   303.10666     -8434.6335      1107.0246     -4716.4842      9.7638059    
   4720000   301.50004     -8464.7297      1113.2131     -4754.2321      18.735967    
   4725000   301.72726     -8466.5255      1107.2573     -4760.0263      6.1586918    
   4730000   297.02499     -8480.6614      1140.6161     -4781.3113      4.9929989    
   4735000   297.15658     -8501.7993      1105.3513     -4836.5805      2.5666672    
   4740000   295.11489     -8495.6521      1138.9421     -4814.4307     -37.197951    
   4745000   298.30226     -8457.4718      1142.4597     -4745.275       29.480768    
   4750000   299.81475     -8435.8597      1117.0224     -4736.0708      36.407569    
   4755000   300.83792     -8474.8509      1084.1635     -4799.1067      15.692299    
   4760000   297.85417     -8436.7392      1090.847      -4780.0153      25.036609    
   4765000   298.011       -8440.2775      1197.1526     -4675.8969      8.5247672    
   4770000   297.39047     -8469.7783      1129.7773     -4778.1186      35.783675    
   4775000   302.50676     -8467.1259      1137.319      -4723.8501     -12.505942    
   4780000   298.7523      -8495.1063      1121.5736     -4799.9187      1.6818056    
   4785000   304.04389     -8503.9525      1091.0844     -4793.6695      13.913185    
   4790000   297.95667     -8499.0813      1112.2244     -4820.0968      32.852941    
   4795000   301.58734     -8467.8504      1114.7813     -4755.0325     -30.557126    
   4800000   295.70052     -8508.7893      1087.8436     -4873.6214     -12.656222    
   4805000   299.00374     -8481.5804      1109.1669     -4796.6335     -33.546279    
   4810000   301.21109     -8491.9217      1128.5956     -4768.5308      58.79927     
   4815000   307.02541     -8501.4651      1109.795      -4746.7871     -2.8684651    
   4820000   298.47875     -8481.822       1149.2535     -4761.311      -31.43466     
   4825000   295.06043     -8441.0985      1118.3177     -4780.9707     -13.879389    
   4830000   295.76887     -8477.6215      1170.0528     -4759.6557      5.3836202    
   4835000   296.77639     -8477.1035      1130.831      -4789.6802      14.194633    
   4840000   304.0523      -8458.3555      1134.2409     -4704.8436     -32.355084    
   4845000   297.92648     -8455.1517      1121.179      -4767.4728     -5.0198512    
   4850000   297.53649     -8476.1812      1136.0571     -4776.9838      2.8131525    
   4855000   304.08286     -8494.0795      1138.1916     -4736.3535     -22.842797    
   4860000   300.69805     -8462.2364      1122.7723     -4749.0884     -4.6272849    
   4865000   301.4911      -8507.1475      1113.4373     -4796.5028      30.323463    
   4870000   308.5221      -8462.5373      1112.0003     -4692.7606      9.6166577    
   4875000   289.45184     -8479.3274      1106.0379     -4879.7947     -22.349348    
   4880000   298.39356     -8501.8118      1109.3181     -4821.9701      1.8922904    
   4885000   306.50191     -8481.0259      1106.4732     -4734.1795     -5.8037718    
   4890000   299.46243     -8463.759       1144.7597     -4739.268      -24.107637    
   4895000   305.71689     -8502.2378      1099.0483     -4769.5788      12.507777    
   4900000   295.82504     -8470.5105      1084.5195     -4837.594       28.442475    
   4905000   299.17195     -8456.3917      1112.5573     -4766.6054     -35.468701    
   4910000   307.5998      -8483.8492      1089.3965     -4744.6216      12.512523    
   4915000   295.94133     -8495.8316      1120.4944     -4825.9385     -19.989728    
   4920000   299.34555     -8493.6013      1074.36       -4840.5168      0.14406342   
   4925000   301.68677     -8458.6124      1113.6613     -4746.0581     -10.62733     
   4930000   294.3203      -8475.2829      1147.9512     -4791.8974      31.857007    
   4935000   296.11165     -8447.0727      1099.7026     -4796.5041     -21.734929    
   4940000   301.45192     -8460.1582      1113.0459     -4750.2424     -7.4000769    
   4945000   306.87131     -8488.7001      1109.8267     -4735.3179      39.53186     
   4950000   294.8954      -8509.5491      1098.5826     -4870.578       4.8473113    
   4955000   298.04635     -8528.3584      1122.5346     -4838.2912      13.217161    
   4960000   298.46728     -8486.9682      1106.659      -4809.1506      7.9028281    
   4965000   298.38824     -8504.8642      1107.942      -4826.4445     -2.3496412    
   4970000   294.68121     -8541.3473      1127.1954     -4875.6084      24.859211    
   4975000   299.83082     -8495.7523      1131.1082     -4781.7391     -4.6157438    
   4980000   299.88972     -8521.9586      1128.7537     -4809.7926      47.675446    
   4985000   297.26606     -8477.7573      1129.7167     -4787.2299     -22.711758    
   4990000   304.4937      -8526.4216      1067.842      -4835.5061      20.548868    
   4995000   298.41563     -8535.5917      1143.2372     -4821.6408      3.4969606    
   5000000   304.169       -8508.3243      1143.7773     -4744.2706     -20.907951    
   5005000   301.63585     -8496.6071      1124.7152     -4773.4376     -39.794733    
   5010000   295.02982     -8515.4557      1109.8597     -4864.0494      15.628024    
Loop time of 6111.57 on 18 procs for 5000000 steps with 2891 atoms

Performance: 2120.567 ns/day, 0.011 hours/ns, 818.120 timesteps/s
99.6% CPU use with 18 MPI tasks x 1 OpenMP threads

MPI task timing breakdown:
Section |  min time  |  avg time  |  max time  |%varavg| %total
---------------------------------------------------------------
Pair    | 37.805     | 443.74     | 2039.7     |2782.3 |  7.26
Bond    | 23.075     | 52.737     | 150.59     | 524.4 |  0.86
Neigh   | 2485.6     | 2494.2     | 2509.4     |  19.0 | 40.81
Comm    | 1218       | 3000       | 3462.8     |1202.3 | 49.09
Output  | 10.386     | 10.436     | 10.467     |   0.7 |  0.17
Modify  | 26.657     | 56.298     | 158.41     | 520.0 |  0.92
Other   |            | 54.16      |            |       |  0.89

Nlocal:        160.611 ave         526 max          38 min
Histogram: 8 0 6 2 0 0 0 0 0 2
Nghost:        4804.94 ave        5454 max        3632 min
Histogram: 2 0 0 0 4 4 0 0 1 7
Neighs:        3383.56 ave       15476 max          94 min
Histogram: 8 2 6 0 0 0 0 0 0 2
FullNghs:      6767.11 ave       31103 max         204 min
Histogram: 8 0 8 0 0 0 0 0 0 2

Total # of neighbors = 121808
Ave neighs/atom = 42.133518
Ave special neighs/atom = 3.5987548
Neighbor list builds = 500000
Dangerous builds = 500000

Total wall time: 1:41:56
