LAMMPS (23 Jun 2022)
OMP_NUM_THREADS environment is not set. Defaulting to 1 thread. (src/src/comm.cpp:98)
  using 1 OpenMP thread(s) per MPI task

variable 		movie equal 25000
variable		solvent equal 0.2  #0.2 is a good solvent, 0.5 is a bad solvent, 1.0 is no solvent/vacuum
variable		np_rad equal 25.0  #NP radius in Angstrom (= 0.1 nm)
variable                coor_del equal 4.0  # in order for a ligand to be considered to be bound, it must be within this radius of the edge of the NP VDW
variable 		E_bind equal 8.0  #ligand-NP binding energy in kcal/mol
variable		Lbox equal 150.0   #edge length of cubic simulation box
variable 		Nlig equal 300	   #number of ligands
variable		seed equal 314159
variable		trajsteps equal 25000000	 #number of timesteps (length of simulation)

units 			real
atom_style		molecular

region 			box block 0 ${Lbox} 0 ${Lbox} 0 ${Lbox} units box
region 			box block 0 150 0 ${Lbox} 0 ${Lbox} units box
region 			box block 0 150 0 150 0 ${Lbox} units box
region 			box block 0 150 0 150 0 150 units box
create_box		4 box bond/types 2 angle/types 1 extra/bond/per/atom 2 extra/angle/per/atom 1 extra/special/per/atom 3
Created orthogonal box = (0 0 0) to (150 150 150)
  2 by 3 by 3 MPI processor grid

molecule		lig ligand.mol
Read molecule template lig:
  1 molecules
  0 fragments
  5 atoms with max type 2
  4 bonds with max type 1
  3 angles with max type 1
  0 dihedrals with max type 0
  0 impropers with max type 0
#molecule		hex hexane.mol

mass            1 60 #C1, MARTINI bead representing a 4-carbon segment of an alkyl chain
mass            2 60 #N6d, MARTINI bead representing a NH2 amino group + a 2-carbon segment of an alkyl chain
mass            3 43 #SC2, MARTINI bead representing a 3-carbon segment of an alkyl chain. NOT USED IN THIS SIMULATION!
mass            4 500 #a spherical nanoparticle. the mass is not realistic.

# put NP in center
create_atoms	4 single $(v_Lbox/2) $(v_Lbox/2) $(v_Lbox/2) units box
create_atoms	4 single 75 $(v_Lbox/2) $(v_Lbox/2) units box
create_atoms	4 single 75 75 $(v_Lbox/2) units box
create_atoms	4 single 75 75 75 units box
Created 1 atoms
  using box units in orthogonal box = (0 0 0) to (150 150 150)
  create_atoms CPU = 0.000 seconds

# define region as everything outside a spherical center in sim. box. ASSUME SIM. BOX IS IMPLIED? doc seems to...
region			box_with_hole sphere $(v_Lbox/2) $(v_Lbox/2) $(v_Lbox/2) $(v_np_rad+5.0) side out units box
region			box_with_hole sphere 75 $(v_Lbox/2) $(v_Lbox/2) $(v_np_rad+5.0) side out units box
region			box_with_hole sphere 75 75 $(v_Lbox/2) $(v_np_rad+5.0) side out units box
region			box_with_hole sphere 75 75 75 $(v_np_rad+5.0) side out units box
region			box_with_hole sphere 75 75 75 30 side out units box

create_atoms	0 random ${Nlig} ${seed} box_with_hole mol lig 12345
create_atoms	0 random 300 ${seed} box_with_hole mol lig 12345
create_atoms	0 random 300 314159 box_with_hole mol lig 12345
Created 1500 atoms
  using lattice units in orthogonal box = (0 0 0) to (150 150 150)
  create_atoms CPU = 0.004 seconds

pair_style		lj/expand 12.0
pair_modify		shift yes

#pair_coeff		1 1 energy sigma delta cut

#ligand-ligand interactions
pair_coeff		1 1 $(v_solvent*0.810) 4.7 0 12
pair_coeff		1 1 0.16200000000000003286 4.7 0 12
pair_coeff		2 2 $(v_solvent*0.841) 4.7 0 12
pair_coeff		2 2 0.16820000000000001616 4.7 0 12
pair_coeff		1 2 $(v_solvent*0.667) 4.7 0 12
pair_coeff		1 2 0.13340000000000001856 4.7 0 12

#solvent-ligand interactions, NOT USED IN THIS SIMULATION
pair_coeff		3 3 0.562 4.1 0 12
pair_coeff		1 3 0.755 4.3 0 12
pair_coeff		2 3 0.554 4.3 0 12

#interactions involving the NP
pair_coeff  	1 4 0.100 4.0 $(v_np_rad-2.5) 12
pair_coeff  	1 4 0.100 4.0 22.5 12
pair_coeff  	3 4 0.100 4.0 $(v_np_rad-2.5) 12
pair_coeff  	3 4 0.100 4.0 22.5 12
pair_coeff		4 4 0.100 4.0 $(2*v_np_rad-4.0) 12
pair_coeff		4 4 0.100 4.0 46 12
pair_coeff   	2 4 ${E_bind} 4.0 $(v_np_rad-2.5) 12 #this interaction controls the binding strength of ligands to the NP core
pair_coeff   	2 4 8 4.0 $(v_np_rad-2.5) 12 
pair_coeff   	2 4 8 4.0 22.5 12 

bond_style  	harmonic
bond_coeff  	1 4.54 4.7 	#C1-C1
bond_coeff		2 5.98 4.05 #SC2-SC2, hexane

angle_style		cosine/squared
angle_coeff		1 4.1826 180

special_bonds 	lj 0 1 1
Finding 1-2 1-3 1-4 neighbors ...
  special bond factors lj:    0        1        1       
  special bond factors coul:  0        0        0       
     2 = max # of 1-2 neighbors
     2 = max # of 1-3 neighbors
     2 = max # of 1-4 neighbors
     7 = max # of special neighbors
  special bonds CPU = 0.001 seconds

group			ligands type 1 2
1500 atoms in group ligands


#EQULILIBRATION: getting rid of overlaps between particles using fix nve/limit ***************

fix 			1 ligands nve/limit 0.1
fix 			2 ligands langevin 300 300 1000 12345 #langevin thermostat

timestep		30

thermo 			5000

dump      		1 all custom ${movie} pos.lammpstrj type x y z
dump      		1 all custom 25000 pos.lammpstrj type x y z
dump_modify		1 sort id

run				10000
Generated 0 of 6 mixed pair_coeff terms from geometric mixing rule
Neighbor list info ...
  update every 1 steps, delay 10 steps, check yes
  max neighbors/atom: 2000, page size: 100000
  master list distance cutoff = 60
  ghost atom cutoff = 60
  binsize = 30, bins = 5 5 5
  1 neighbor lists, perpetual/occasional/extra = 1 0 0
  (1) pair lj/expand, perpetual
      attributes: half, newton on
      pair build: half/bin/newton
      stencil: half/bin/3d
      bin: standard
Per MPI rank memory allocation (min/avg/max) = 8.169 | 8.182 | 8.191 Mbytes
   Step          Temp          E_pair         E_mol          TotEng         Press     
         0   0              9.548594e+12   1.6970038e-25  9.548594e+12   7.7597873e+11
      5000   143.55007     -203.80055      307.63575      745.67844      3.0664713    
     10000   141.66484     -220.66641      318.27356      731.02113      0.67235878   
Loop time of 1.96999 on 18 procs for 10000 steps with 1501 atoms

Performance: 13157.409 ns/day, 0.002 hours/ns, 5076.161 timesteps/s
99.5% CPU use with 18 MPI tasks x 1 OpenMP threads

MPI task timing breakdown:
Section |  min time  |  avg time  |  max time  |%varavg| %total
---------------------------------------------------------------
Pair    | 0.048989   | 0.1009     | 0.14633    |   9.1 |  5.12
Bond    | 0.041291   | 0.056075   | 0.071403   |   3.7 |  2.85
Neigh   | 0.51237    | 0.51623    | 0.52196    |   0.4 | 26.20
Comm    | 1.1151     | 1.1865     | 1.2714     |   4.2 | 60.23
Output  | 6.4733e-05 | 7.2765e-05 | 9.6627e-05 |   0.0 |  0.00
Modify  | 0.05284    | 0.070985   | 0.086167   |   3.9 |  3.60
Other   |            | 0.03922    |            |       |  1.99

Nlocal:        83.3889 ave         106 max          55 min
Histogram: 2 0 2 0 3 4 2 1 2 2
Nghost:        2472.56 ave        2604 max        2266 min
Histogram: 1 0 2 2 0 3 3 2 1 4
Neighs:        352.611 ave         547 max         179 min
Histogram: 2 3 1 0 5 2 0 2 0 3

Total # of neighbors = 6347
Ave neighs/atom = 4.2285143
Ave special neighs/atom = 3.5976016
Neighbor list builds = 909
Dangerous builds = 0

#PRODUCTION RUN ******************************************************************************

unfix 			1
fix 			1 ligands nve
undump			1
# define spherical region in center of sim. box
# region			center sphere $(v_Lbox/2) $(v_Lbox/2) $(v_Lbox/2) $(v_np_rad+5.0) units box
# delete atoms in the region
# delete_atoms	region center mol yes
# put NP in the hole
# create_atoms	4 single $(v_Lbox/2) $(v_Lbox/2) $(v_Lbox/2) units box

dump      		2 all custom ${movie} pos2.lammpstrj type x y z
dump      		2 all custom 25000 pos2.lammpstrj type x y z
dump_modify		2 sort id

group           nps     type 4
1 atoms in group nps
group           amines  type 2
300 atoms in group amines

# count coordination number of NP
compute coords nps coord/atom cutoff $(v_np_rad + v_coor_del) 2
compute coords nps coord/atom cutoff 29 2
dump 3 nps custom ${movie} coords.dmp c_coords
dump 3 nps custom 25000 coords.dmp c_coords
# equivalent calculation below
# compute coords nps coord/atom cutoff 28 group amines
# dump 4 nps custom ${movie} coords2.dmp type c_coords2



run				${trajsteps}
run				25000000
Generated 0 of 6 mixed pair_coeff terms from geometric mixing rule
Neighbor list info ...
  update every 1 steps, delay 10 steps, check yes
  max neighbors/atom: 2000, page size: 100000
  master list distance cutoff = 60
  ghost atom cutoff = 60
  binsize = 30, bins = 5 5 5
  2 neighbor lists, perpetual/occasional/extra = 1 1 0
  (1) pair lj/expand, perpetual
      attributes: half, newton on
      pair build: half/bin/newton
      stencil: half/bin/3d
      bin: standard
  (2) compute coord/atom, occasional
      attributes: full, newton on
      pair build: full/bin
      stencil: full/bin/3d
      bin: standard
Per MPI rank memory allocation (min/avg/max) = 7.544 | 7.556 | 7.565 Mbytes
   Step          Temp          E_pair         E_mol          TotEng         Press     
     10000   141.66484     -220.66641      318.27356      731.02113      0.67235878   
     15000   293.13468     -324.48367      669.29698      1655.4815      8.2631843    
     20000   301.03093     -414.15665      638.5566       1570.374       6.3781824    
     25000   303.3348      -491.21006      657.14132      1522.2064      3.168953     
     30000   300.33232     -583.25478      641.79344      1401.389       3.9843299    
     35000   299.85396     -611.99028      626.53001      1355.2513      6.2730632    
     40000   299.9631      -665.24427      615.78213      1291.7374     -10.441183    
     45000   306.88163     -733.61513      665.02355      1303.5422     -7.0137422    
     50000   300.64404     -788.81541      648.24378      1203.6725      1.6708768    
     55000   303.27844     -841.04966      644.65848      1159.632       3.3303684    
     60000   303.65995     -912.8882       665.6808       1110.5216      9.7479191    
     65000   303.57224     -990.70732      611.01784      977.64728     -13.574255    
     70000   314.85868     -1017.3506      613.25687      1003.7071      16.898987    
     75000   302.54591     -1038.8298      647.92696      961.84502     -16.739703    
     80000   310.11754     -1058.0608      650.77382      979.3152       2.4060196    
     85000   302.10532     -1074.9236      620.94417      896.79843      9.6609536    
     90000   292.75652     -1110.511       650.98216      849.44857     -4.1780942    
     95000   292.36965     -1116.4254      651.32777      842.14994      8.5479617    
    100000   299.14277     -1151.1255      602.97428      789.38043     -11.793476    
    105000   293.52434     -1156.379       628.73306      784.76449     -12.291171    
    110000   296.28052     -1184.2993      619.84912      760.28374      6.6169203    
    115000   299.33109     -1226.6452      623.22335      734.95177     -13.422154    
    120000   302.5142      -1233.9583      604.03158      722.67936      0.48207625   
    125000   299.80294     -1284.9327      652.69382      708.24458      15.858254    
    130000   297.18816     -1303.3992      608.62971      634.02267      8.9780471    
    135000   306.30045     -1322.6415      647.20724      694.10096      8.5759543    
    140000   292.2153      -1327.6956      627.17439      606.03621     -23.007154    
    145000   310.58758     -1369.4469      637.9606       657.21753     -4.5945684    
    150000   299.10757     -1356.1681      648.49441      629.70052      12.222281    
    155000   310.43536     -1401.0076      630.83994      617.85556      0.96218808   
    160000   303.80378     -1419.0593      628.99113      568.30386      1.1013017    
    165000   294.86198     -1427.8104      650.00513      540.58606      5.1094204    
    170000   310.39732     -1445.1855      640.6428       583.31043      8.9287142    
    175000   295.54468     -1458.8522      650.14017      512.73177     -3.0278346    
    180000   303.51366     -1471.3888      618.19365      503.87968      10.456116    
    185000   295.56034     -1494.4542      635.21683      462.27647      15.39567     
    190000   288.69329     -1505.0965      610.7762       396.48946      1.3931727    
    195000   297.27619     -1501.7558      639.05537      466.48537      12.724004    
    200000   294.62316     -1526.3685      619.55072      410.50576     -15.489386    
    205000   306.78895     -1551.098       630.62935      451.25069      23.869507    
    210000   314.43479     -1557.5618      636.06797      484.41178     -16.80593     
    215000   300.83912     -1560.7697      610.76382      395.11058     -8.3787668    
    220000   298.22136     -1569.4498      650.17488      414.13692     -11.23485     
    225000   309.22982     -1594.261       640.49701      428.86906      2.5772669    
    230000   298.76794     -1603.9741      622.66871      354.55032      12.320532    
    235000   293.74002     -1634.6532      643.54         322.26161      8.496685     
    240000   306.33184     -1618.6241      621.89388      372.94527      0.37898531   
    245000   306.02345     -1636.4522      644.28874      376.13313     -6.3486924    
    250000   305.33309     -1637.3326      622.0252       349.90253     -8.2653445    
    255000   303.75639     -1668.4526      660.59541      350.30299     -19.104561    
    260000   304.24922     -1665.9942      612.2018       306.57124      6.656224     
    265000   295.59834     -1694.9171      646.53204      273.29865      5.0484946    
    270000   300.47359     -1707.5464      604.63818      240.57387      7.3034796    
    275000   298.87598     -1722.5254      610.18098      223.99434     -7.9686275    
    280000   305.94414     -1712.811       638.65899      293.79009     -18.019263    
    285000   294.46121     -1729.9465      672.51672      259.16955     -6.0919863    
    290000   297.5819      -1749.1622      631.28584      212.67634      5.2097923    
    295000   300.96741     -1730.0509      626.08798      241.72706     -11.168687    
    300000   293.87174     -1749.4214      569.65505      134.19745      16.390081    
    305000   305.1949      -1769.8625      637.38685      232.1164       7.9170755    
    310000   295.70194     -1804.0901      627.59637      145.65324      9.7647539    
    315000   300.99165     -1778.5012      599.5136       166.81075     -7.1776968    
    320000   295.86752     -1800.987       644.58679      166.48707     -26.483167    
    325000   293.87027     -1800.139       604.71692      118.53508     -3.5358089    
    330000   294.7347      -1815.2856      623.18485      125.72143     -10.820737    
    335000   294.11598     -1833.8381      602.23607      83.453719      1.263591     
    340000   302.44401     -1837.071       651.58524      166.80647      6.0859018    
    345000   298.75134     -1814.8594      633.44188      154.36403     -15.032899    
    350000   301.85517     -1821.907       600.93287      128.68528     -22.042477    
    355000   298.71695     -1850.9682      592.44065      77.100173     -14.139387    
    360000   291.60769     -1884.6138      626.19878      45.425701      12.921963    
    365000   291.63115     -1873.2875      607.24821      37.906349      16.845286    
    370000   313.12643     -1909.97        622.23993      112.32553      17.862778    
    375000   291.8913      -1895.4981      620.52878      30.139503     -5.0085438    
    380000   301.40681     -1907.8923      649.05927      88.821631      21.067018    
    385000   312.88721     -1922.2202      623.30869      100.07447      4.859148     
    390000   297.30351     -1905.3498      639.87263      63.830752     -11.831691    
    395000   305.28168     -1899.7431      627.66843      92.905404     -2.6746527    
    400000   299.97575     -1909.6552      628.24555      59.846478      7.2512414    
    405000   301.67767     -1920.7716      642.00528      70.099456     -8.9918456    
    410000   296.90566     -1916.2705      617.52208      28.780617      5.1275525    
    415000   286.30868     -1910.0613      640.41192      10.498342      1.0044369    
    420000   306.93751     -1921.4545      606.94434      57.873519      22.195125    
    425000   296.32551     -1933.2405      613.25671      4.9513527     -17.758144    
    430000   309.69034     -1937.5181      603.46778      50.641795     -7.1478557    
    435000   307.18656     -1943.6128      601.65144      31.535826      9.2614712    
    440000   302.33483     -1939.5843      629.23304      41.452787      4.8552458    
    445000   298.6519      -1931.9486      607.75501      11.143293      2.8123781    
    450000   288.40027     -1955.0186      623.42727     -42.091732     -6.3072847    
    455000   300.92303     -1925.2871      610.04634      30.250884      9.7665712    
    460000   314.5726      -1956.4189      634.98572      85.088589     -4.7583794    
    465000   291.62185     -1940.3934      635.76102     -0.72840085     9.6700983    
    470000   306.87683     -1958.4655      604.17763      17.824426     -8.7123791    
    475000   303.45124     -1964.9435      613.4736       5.3258584     -7.6000036    
    480000   291.21317     -1971.9813      608.03729     -61.867312     -21.793101    
    485000   307.32269     -1965.4688      593.21468      1.8517362      7.3299837    
    490000   292.7076      -1950.2887      580.81023     -60.719872      11.504052    
    495000   294.87915     -1979.3663      613.49866     -47.399511      5.3847871    
    500000   294.91609     -1983.3302      608.02348     -56.673464     -4.8710063    
    505000   300.09289     -1948.1674      645.43872      39.051162     -3.6382584    
    510000   299.77992     -1948.9301      591.62337     -16.926225      7.7952292    
    515000   287.48653     -1925.0618      621.0923      -18.555372     -9.0717923    
    520000   303.4217      -1955.597       630.85095      31.917595     -6.0177138    
    525000   300.74532     -1957.5076      612.20385     -0.6067461      4.0073445    
    530000   290.87387     -1944.6493      629.49808     -14.591598      11.961397    
    535000   302.62722     -1973.2415      587.82298     -32.307155      0.10204964   
    540000   301.1411      -1961.6046      594.37567     -20.76232       4.1163629    
    545000   298.42851     -1966.4837      612.06875     -20.07689      -15.868002    
    550000   306.59894     -1967.0075      650.14901      54.011272     -22.615036    
    555000   293.86384     -1968.5246      645.80415     -8.7920492     -13.255899    
    560000   288.66355     -1967.5888      616.79063     -60.121407      19.828148    
    565000   294.58142     -1996.3676      625.47472     -53.755957      2.6782307    
    570000   293.60186     -1996.5714      601.23899     -82.575368      1.9221094    
    575000   303.20593     -1998.9416      591.86995     -51.372745     -5.9687728    
    580000   302.21328     -1972.5994      598.77025     -22.568573      3.0739326    
    585000   294.06277     -1997.781       626.53816     -56.424918      23.414217    
    590000   301.67398     -1984.333       595.03254     -40.451238      5.8532458    
    595000   291.51466     -2017.7078      632.01934     -82.263666     -5.7185517    
    600000   300.13901     -2018.5808      592.42652     -84.168148     -2.9075504    
    605000   300.19508     -2039.1499      606.8824      -90.03078      -1.1430386    
    610000   307.31874     -2032.0068      637.20077     -20.717859      7.1358954    
    615000   296.09151     -2039.2345      618.11587     -97.229781      1.7560005    
    620000   290.15158     -2023.3095      617.58426     -108.3951      -4.3396856    
    625000   303.42843     -2024.8304      597.78983     -70.346784      6.7318388    
    630000   294.69606     -2019.4483      603.51112     -98.287713      1.112651     
    635000   297.24439     -2009.4259      600.37141     -80.01084       19.170505    
    640000   300.88798     -2034.9785      593.24967     -96.394004      20.408329    
    645000   297.59669     -2035.5436      606.68674     -98.238054      22.877077    
    650000   300.72526     -2030.822       602.48161     -83.733048     -15.250651    
    655000   314.78047     -2048.8437      579.59914     -61.793394     -0.090459316  
    660000   287.68834     -2031.6412      600.27958     -145.04521      8.0415222    
    665000   294.63399     -2038.5984      597.0238      -124.20267      15.864902    
    670000   295.64224     -2040.3986      631.69846     -86.8201        2.0144424    
    675000   302.35378     -2029.6171      627.14661     -50.581742      25.064245    
    680000   297.28138     -2054.6819      631.33051     -94.142441     -7.8313612    
    685000   307.92515     -2054.3543      619.54848     -58.006281      8.3973041    
    690000   292.58972     -2056.4503      610.1807      -138.03803      12.724396    
    695000   301.06809     -2054.3829      590.89226     -117.35047     -9.099965     
    700000   298.13754     -2048.0976      579.62521     -135.43535      2.3571061    
    705000   306.01291     -2055.4338      622.79965     -64.384598      25.366521    
    710000   301.72891     -2051.5483      625.7578      -76.695668     -17.430251    
    715000   288.32043     -2046.7175      599.64392     -157.93093      35.432966    
    720000   296.31069     -2028.3598      575.99864     -127.49236      27.60836     
    725000   300.84643     -2047.4871      580.33946     -121.99854     -1.2955984    
    730000   311.18192     -2046.2304      587.41685     -67.452305      11.958739    
    735000   298.18366     -2029.9342      637.34593     -59.34499       6.3495428    
    740000   311.60341     -2019.9805      655.13342      28.398724     -12.311141    
    745000   308.653       -2012.0662      608.78511     -23.227143      9.7951713    
    750000   303.76445     -2049.1542      616.32399     -74.633982     -8.54686      
    755000   299.8599      -2022.4083      637.69449     -43.975736      35.367697    
    760000   302.45962     -2019.6981      607.97646     -59.359621     -2.1768404    
    765000   300.17006     -2033.7272      632.92637     -58.675953      1.1876185    
    770000   301.94064     -2037.5175      576.59004     -110.88596     -0.37076943   
    775000   306.93018     -2031.0652      587.68214     -71.032234     -2.6103501    
    780000   302.14925     -2036.4862      597.90518     -87.606737     -8.3911029    
    785000   304.70812     -2068.8445      608.20922     -98.219805      16.895572    
    790000   298.56322     -2043.8852      629.56389     -79.380993      0.84205182   
    795000   301.74186     -2046.8035      613.09483     -84.555964     -0.92438634   
    800000   284.33112     -2028.0576      589.93035     -166.82164     -7.2755536    
    805000   292.01965     -2053.1902      609.57705     -137.93048     -9.9359112    
    810000   297.01714     -2043.6117      619.56789     -96.016288     -21.110365    
    815000   304.45687     -2039.1315      609.11372     -68.725689     -0.58292882   
    820000   302.89029     -2041.4657      606.31461     -80.863408     -7.8899511    
    825000   304.31741     -2065.7458      616.91912     -88.158132     -14.537807    
    830000   305.38158     -2065.9329      617.87279     -82.633405     -3.7319672    
    835000   291.54232     -2046.1613      597.59855     -145.01435      12.273171    
    840000   288.92415     -2077.5274      611.20966     -174.47577      13.061906    
    845000   294.19578     -2077.3019      617.88019     -144.00909      6.0651273    
    850000   300.39143     -2093.7701      598.36083     -152.2946       18.573483    
    855000   301.44358     -2102.4662      622.14772     -132.49939      20.340342    
    860000   295.1869      -2087.8335      593.29869     -174.69067     -12.168729    
    865000   300.94887     -2102.6904      599.85591     -157.22741      1.3536757    
    870000   299.11423     -2067.6725      619.98765     -110.28081      1.5883309    
    875000   293.28398     -2097.5813      599.8928      -186.35269     -4.5547483    
    880000   302.63221     -2081.2296      602.94614     -125.14975     -3.0136788    
    885000   289.84658     -2089.6557      589.17167     -204.51761      17.303905    
    890000   310.80261     -2073.3807      606.86916     -76.8462       -5.5786103    
    895000   290.02154     -2097.8759      614.19964     -186.92764      3.1940898    
    900000   297.95896     -2068.3705      614.71496     -121.41699     -23.658496    
    905000   298.2893      -2072.0873      606.11841     -132.25326     -13.071899    
    910000   310.48383     -2088.8632      598.34955     -102.27363      36.450942    
    915000   305.13038     -2074.6294      581.44225     -128.88361      4.0638272    
    920000   294.37767     -2081.7698      606.60363     -158.94026     -8.6729342    
    925000   309.69464     -2080.6676      584.86086     -111.09537      9.5358817    
    930000   309.33617     -2097.4646      588.49363     -125.86246     -9.354682     
    935000   296.81377     -2071.4769      640.2516      -104.10712      7.6237189    
    940000   296.54429     -2075.2789      577.74955     -171.61602      10.179168    
    945000   303.11867     -2077.3766      619.93598     -102.13191     -4.0034009    
    950000   297.52061     -2096.8258      593.86771     -172.67946      17.655292    
    955000   301.80967     -2100.3513      600.61542     -150.27995     -3.4174095    
    960000   300.89681     -2049.0296      625.75417     -77.901133      1.6857877    
    965000   297.39446     -2072.7146      620.83328     -122.16672      4.706639     
    970000   300.95534     -2060.4589      606.40925     -108.41357     -11.135533    
    975000   291.24957     -2049.7374      591.22893     -156.26902      17.109448    
    980000   299.77892     -2063.1121      613.76324     -108.97287      4.8167685    
    985000   296.47928     -2053.1773      598.69999     -128.85467     -9.9979113    
    990000   303.20496     -2077.5489      566.51656     -155.33774      13.547605    
    995000   297.51042     -2096.8402      593.033       -173.57412     -14.030479    
   1000000   300.91022     -2087.2263      603.9406      -137.85136      6.8381815    
   1005000   300.26222     -2091.4615      595.1693      -153.75525     -0.21402077   
   1010000   300.0455      -2101.8709      603.49686     -156.80604     -7.8246497    
   1015000   302.77556     -2079.9456      582.5557      -143.61523     -11.640843    
   1020000   292.13606     -2107.9063      600.01277     -201.69042     -2.9112718    
   1025000   302.86188     -2080.1345      625.32557     -100.64836      16.498909    
   1030000   291.76014     -2119.1546      599.47357     -215.1587      -5.8107503    
   1035000   288.38049     -2107.0538      624.2256      -193.41697      4.6796057    
   1040000   296.59733     -2105.4302      659.37901     -119.90074     -13.874906    
   1045000   311.13889     -2084.3956      636.32198     -56.90473       15.027966    
   1050000   305.84527     -2089.5421      617.2465      -104.79558      2.9147274    
   1055000   309.32295     -2054.6755      609.32853     -62.297472      0.85348794   
   1060000   296.68271     -2084.9565      645.06413     -113.36018     -2.4729281    
   1065000   294.84534     -2095.749       609.41656     -168.01547      2.9240672    
   1070000   297.46068     -2076.2484      607.06947     -139.16821      14.117477    
   1075000   290.7877      -2094.5518      644.73628     -149.64115      6.1909314    
   1080000   298.91878     -2098.674       603.86119     -158.2826      -9.8886806    
   1085000   297.31618     -2094.5589      613.51592     -151.67843     -8.2352417    
   1090000   294.6459      -2110.6279      632.63028     -160.57241     -10.872235    
   1095000   298.61557     -2115.1584      623.56571     -156.41831     -5.0228523    
   1100000   295.68631     -2123.3291      646.34374     -154.90831      6.331514     
   1105000   302.4977      -2104.5465      598.82236     -153.19188      6.6027994    
   1110000   293.62222     -2113.4033      607.08294     -193.47227     -6.8667918    
   1115000   299.52076     -2130.816       661.94198     -129.65224      14.612094    
   1120000   290.69304     -2117.2225      604.64618     -212.82527      3.3651204    
   1125000   293.538       -2105.0244      633.59107     -158.96177      4.0402427    
   1130000   300.06566     -2081.8408      598.20607     -141.97661      7.9170098    
   1135000   297.81068     -2086.8954      628.26445     -127.05528     -10.440237    
   1140000   293.72876     -2114.6892      620.73019     -180.63454      1.6907514    
   1145000   307.00436     -2100.7581      588.75101     -139.32457     -13.187784    
   1150000   296.70065     -2097.9593      607.74893     -163.59794      6.3154108    
   1155000   292.45878     -2084.7963      611.02906     -166.12112     -3.9058506    
   1160000   291.20231     -2080.3188      602.83684     -175.45377     -14.867622    
   1165000   295.71074     -2088.3149      590.14973     -175.97886     -13.511099    
   1170000   293.65666     -2086.7681      617.13649     -156.62954      15.185294    
   1175000   298.91497     -2112.1625      611.75811     -163.89125     -5.486323     
   1180000   302.6211      -2073.476       598.99958     -121.39239     -25.320479    
   1185000   299.77945     -2102.3932      611.52688     -150.48792      5.1226913    
   1190000   294.27495     -2108.4863      610.87455     -181.84518      9.7176198    
   1195000   284.89925     -2099.4481      613.43514     -212.16716     -20.085419    
   1200000   312.42342     -2090.1027      612.34335     -80.846998      1.7444612    
   1205000   298.52356     -2112.077       610.52489     -166.78906     -3.4257052    
   1210000   284.67246     -2138.8334      602.71924     -263.28242      1.4982046    
   1215000   293.59355     -2131.9107      614.91237     -204.27842      16.618984    
   1220000   304.12        -2126.9476      597.7279      -169.43379      7.1060093    
   1225000   302.39892     -2124.2665      619.83446     -152.34145      15.685195    
   1230000   303.16756     -2115.6533      604.56316     -155.56278     -4.4927423    
   1235000   296.52286     -2121.9678      608.08688     -188.06346     -2.5869325    
   1240000   300.58925     -2106.7332      614.68285     -148.05111      15.366653    
   1245000   294.41345     -2094.5045      627.471       -150.64768     -16.090887    
   1250000   299.63846     -2111.6807      590.52723     -181.40547     -8.1462056    
   1255000   305.33254     -2104.1337      605.2773      -133.64897      13.038889    
   1260000   298.91329     -2084.5602      610.90171     -137.15294      6.2682953    
   1265000   309.20782     -2072.556       604.61084     -85.410477      2.8501294    
   1270000   287.55454     -2091.5168      585.0217      -220.77688     -1.7715431    
   1275000   306.3989      -2096.6555      615.98014     -110.69993     -8.4030138    
   1280000   289.83393     -2056.8087      618.20771     -142.69116     -10.739589    
   1285000   289.15313     -2058.0023      625.20036     -139.93616     -4.8696031    
   1290000   291.01218     -2091.4887      599.40169     -190.909        11.419388    
   1295000   292.67965     -2105.4412      577.92084     -218.88665     -13.055075    
   1300000   297.17681     -2086.3749      635.99472     -121.63878     -12.888797    
   1305000   296.14172     -2062.4761      609.57887     -128.78389      5.5299834    
   1310000   309.29251     -2057.3913      587.24821     -87.229812     -14.827769    
   1315000   295.91994     -2101.4359      623.58964     -154.72458      2.7436628    
   1320000   297.36919     -2094.0061      604.35823     -160.04624      17.165094    
   1325000   298.7255      -2082.6685      624.05865     -122.9439       8.0515255    
   1330000   303.77905     -2090.836       637.32597     -95.248588     -14.081946    
   1335000   297.08264     -2098.1348      622.85017     -146.96423      12.103655    
   1340000   305.04805     -2095.5803      618.09131     -113.55358      10.83295     
   1345000   300.37739     -2095.5197      639.5816      -112.88617     -7.5705932    
   1350000   296.57329     -2095.7098      616.5165      -153.15034     -8.3013191    
   1355000   299.6062      -2107.4956      601.19649     -166.69531     -3.0238925    
   1360000   294.48743     -2108.9081      614.50959     -177.68184      9.2772283    
   1365000   307.97212     -2119.0464      621.13164     -120.90521     -4.735348     
   1370000   298.17433     -2088.4649      610.94798     -144.31541     -24.607626    
   1375000   298.60181     -2102.2062      618.39196     -148.70134      10.663413    
   1380000   295.32059     -2121.1661      582.86719     -217.85698      7.7897469    
   1385000   297.62528     -2122.1965      588.96244     -202.48741      1.8344213    
   1390000   314.16535     -2132.6999      622.27047     -105.72853     -9.1294201    
   1395000   285.91581     -2119.6099      617.48212     -223.73668      25.479213    
   1400000   303.93155     -2144.0732      636.1823      -148.94761      21.483651    
   1405000   301.96699     -2100.9957      627.529       -123.30735      8.2447628    
   1410000   296.86355     -2132.0562      634.63394     -170.08152      4.3116872    
   1415000   294.15066     -2117.2234      636.10774     -165.90481      21.252894    
   1420000   305.28715     -2105.9915      591.89982     -149.0871       16.995064    
   1425000   299.18272     -2135.9548      634.60314     -163.64142     -6.5092032    
   1430000   307.26903     -2127.6288      578.94723     -174.8157      -6.5320463    
   1435000   293.41549     -2132.8391      622.22018     -198.69512     -4.0197036    
   1440000   302.80962     -2151.1693      616.83804     -180.40437      6.0102203    
   1445000   305.23609     -2126.8602      602.72111     -159.36293     -2.9186008    
   1450000   298.80215     -2143.0874      612.55311     -194.52558     -1.2995092    
   1455000   297.59994     -2153.5742      627.04431     -195.89659      0.1989374    
   1460000   296.95063     -2150.6712      639.86227     -183.07875     -12.390731    
   1465000   295.5433      -2146.8364      610.12593     -215.27286      13.426762    
   1470000   293.88928     -2144.0692      632.13424     -197.8928       10.128583    
   1475000   299.47877     -2162.6563      621.67455     -201.94779     -0.5783008    
   1480000   302.7538      -2118.9683      627.73289     -137.55805      22.193704    
   1485000   301.46656     -2172.726       626.47135     -198.33282     -8.5189157    
   1490000   312.37039     -2161.8867      618.5182      -146.69329      26.730483    
   1495000   304.30178     -2152.4087      600.45641     -191.35353     -10.510072    
   1500000   292.448       -2151.2562      592.6252      -251.03315      13.496085    
   1505000   307.3398      -2150.2568      616.93992     -159.13454      22.228321    
   1510000   310.97688     -2146.141       630.278       -125.41847      7.6329808    
   1515000   300.49729     -2149.7493      591.59569     -214.56558     -6.5787281    
   1520000   301.74185     -2142.9415      608.68074     -185.10805     -18.826091    
   1525000   295.66125     -2146.988       595.69335     -229.32959     -4.9246813    
   1530000   295.94228     -2128.2634      613.64513     -191.39667      3.5130994    
   1535000   300.15637     -2111.7436      635.58581     -134.09413      5.8454382    
   1540000   299.78834     -2161.0026      609.76139     -210.82303     -11.761945    
   1545000   301.29387     -2156.6194      611.99569     -197.47401      14.044914    
   1550000   294.87427     -2153.0157      580.43944     -254.13003     -6.7831345    
   1555000   309.61412     -2149.4129      586.57671     -178.48484      5.3309936    
   1560000   304.95514     -2134.3626      591.29267     -179.54988     -11.990794    
   1565000   291.60998     -2125.1559      599.14874     -222.15627     -24.744364    
   1570000   305.80101     -2142.2626      580.30545     -194.65513     -5.4064569    
   1575000   300.02741     -2144.4694      631.563       -171.41931     -0.8917578    
   1580000   313.37217     -2158.2581      617.89287     -139.2108      -15.569164    
   1585000   297.70795     -2113.1517      647.11854     -134.9169       11.436517    
   1590000   307.62799     -2140.4331      618.86342     -146.09882     -8.5505809    
   1595000   309.24649     -2163.8246      622.88114     -158.23588      17.018055    
   1600000   305.46771     -2127.7792      620.89676     -141.07064      17.353165    
   1605000   294.92706     -2127.6638      641.29163     -167.68985      5.2205018    
   1610000   300.86506     -2126.5802      612.25189     -169.09594     -15.297689    
   1615000   300.277       -2112.1202      582.73536     -186.78185     -22.612623    
   1620000   302.14591     -2119.4127      635.56244     -132.89093      1.7870156    
   1625000   298.59967     -2114.0619      578.81239     -200.14619      3.9449195    
   1630000   289.55212     -2105.9389      610.06499     -201.22405      13.712523    
   1635000   306.92588     -2049.9283      595.65601     -81.940628     -11.632098    
   1640000   303.42172     -2070.4491      593.24913     -120.53618     -16.438993    
   1645000   294.66549     -2082.8902      631.41598     -133.9614      -0.92363833   
   1650000   305.44643     -2071.7594      623.79704     -82.245648      1.238482     
   1655000   296.92814     -2104.9191      606.1485      -171.14098      6.470798     
   1660000   310.27874     -2078.544       598.05886     -93.162161      12.605916    
   1665000   300.77409     -2129.3367      601.48418     -183.02691      21.558943    
   1670000   299.93359     -2128.6946      613.62158     -174.00547      4.5671413    
   1675000   297.27071     -2125.622       630.87139     -165.58932     -10.000382    
   1680000   300.40925     -2117.6954      614.65989     -159.84119      1.7060554    
   1685000   288.79306     -2127.0666      625.23906     -210.57166     -11.305646    
   1690000   303.86023     -2129.4313      625.61603     -145.19085      8.0142147    
   1695000   303.49335     -2125.8112      599.07328     -169.75391     -8.1387286    
   1700000   305.87317     -2114.5367      645.11171     -101.80022      6.4810449    
   1705000   301.55626     -2101.241       611.99959     -140.9185      -12.630357    
   1710000   289.73898     -2098.9053      640.98074     -162.43924     -1.1905904    
   1715000   300.42707     -2096.6308      634.42919     -118.92753      1.4160177    
   1720000   303.5488      -2088.2872      609.41102     -121.64423     -5.3771994    
   1725000   301.43997     -2083.4695      632.70567     -102.96082      19.555769    
   1730000   299.36548     -2090.7674      615.33911     -136.9008       6.1645604    
   1735000   303.20104     -2095.0811      608.22999     -131.17403      4.668453     
   1740000   286.53318     -2081.7746      621.42708     -179.19604     -1.8736601    
   1745000   299.85021     -2092.4277      619.31857     -132.41439     -9.7761475    
   1750000   300.71983     -2096.3901      644.57644     -107.23059     -17.290963    
   1755000   300.14725     -2062.1617      588.01395     -132.12487      1.5833225    
   1760000   297.73172     -2086.3666      647.27534     -107.86869      24.634236    
   1765000   291.0898      -2103.7409      621.58513     -180.63071      0.46741556   
   1770000   302.99749     -2091.9842      607.52548     -129.6918      -1.6824775    
   1775000   302.24378     -2086.6752      607.21211     -128.06616      9.2712481    
   1780000   293.14949     -2079.0756      615.77031     -152.57083     -8.1676782    
   1785000   285.98798     -2063.9882      594.62161     -190.65279      9.9374065    
   1790000   302.28832     -2054.3005      621.8812      -80.823197     -7.6078631    
   1795000   297.37033     -2075.6396      593.96133     -152.07158      0.63388      
   1800000   297.55458     -2071.9318      571.86884     -169.6325       12.551433    
   1805000   295.80702     -2070.1888      588.16976     -159.4022      -14.474201    
   1810000   297.02521     -2062.9326      620.95238     -113.91661      18.487185    
   1815000   297.74612     -2078.6178      604.22824     -143.10262     -11.588735    
   1820000   302.82892     -2062.8512      580.6945      -128.14351      11.878446    
   1825000   301.4481      -2080.457       628.97215     -103.64554      14.460759    
   1830000   304.20543     -2089.2667      597.85695     -131.2419      -7.1961029    
   1835000   303.91331     -2076.6819      608.08462     -109.73547      4.1560775    
   1840000   308.44244     -2058.3628      653.67991     -25.570361      12.975183    
   1845000   297.78689     -2094.681       633.83463     -129.37719      19.282778    
   1850000   299.67704     -2093.5858      608.43981     -145.22551     -12.374253    
   1855000   302.02147     -2088.4891      618.5129      -119.57318      24.129533    
   1860000   295.11051     -2098.7483      628.2918      -150.95392     -1.5437217    
   1865000   306.65104     -2097.4831      615.51585     -110.86455     -33.976371    
   1870000   296.27634     -2095.4167      632.01195     -138.68953      8.4561092    
   1875000   309.05274     -2084.9488      631.60587     -71.501676     -1.1069951    
   1880000   299.57269     -2089.1895      609.74961     -139.98593      8.033111     
   1885000   302.99888     -2095.6108      585.26278     -155.57487     -24.95498     
   1890000   304.72033     -2120.0791      582.01685     -175.5921       2.4891032    
   1895000   294.37489     -2095.3629      618.24396     -160.90552      13.41876     
   1900000   300.15544     -2083.5964      620.9391      -120.59776     -3.3388887    
   1905000   297.82706     -2095.9524      638.5602      -125.74334     -1.031599     
   1910000   299.69581     -2090.2814      575.94057     -174.33642      15.303816    
   1915000   305.79683     -2086.8875      617.1083      -102.49579      11.189666    
   1920000   292.78307     -2098.3706      626.83491     -162.43958     -6.7590459    
   1925000   301.73533     -2108.7214      591.37677     -168.22104     -8.333463     
   1930000   315.07395     -2106.2841      630.11456     -67.406102      3.7919786    
   1935000   303.50488     -2124.4367      612.71736     -154.68374      4.4784317    
   1940000   296.34743     -2119.5856      642.10687     -152.44563     -16.9953      
   1945000   304.33727     -2103.0843      620.17657     -122.15032      11.84509     
   1950000   292.27012     -2118.3429      607.66151     -203.8788       11.707264    
   1955000   300.92647     -2084.9571      609.63523     -129.81496     -4.7285072    
   1960000   303.36434     -2120.6373      627.63217     -136.59789      6.7844941    
   1965000   301.74894     -2124.9064      612.2149      -163.5071      -5.9204814    
   1970000   299.11938     -2105.1355      612.59881     -155.10958      5.9594771    
   1975000   309.40064     -2106.2444      607.97395     -114.87364     -4.5335797    
   1980000   304.78342     -2112.3709      606.01885     -143.59982      5.3364969    
   1985000   301.69026     -2097.3947      609.29415     -139.17848      10.619536    
   1990000   303.68149     -2116.3712      603.50702     -155.03892     -0.49547683   
   1995000   296.40988     -2099.8683      627.71658     -146.83941      27.930257    
   2000000   306.11307     -2094.9712      617.24158     -109.03219      12.697756    
   2005000   289.07494     -2101.7348      646.5308      -162.68777     -9.9879208    
   2010000   307.35599     -2079.7312      616.00851     -89.467928      11.394296    
   2015000   307.61327     -2057.881       601.70364     -80.7723        15.016708    
   2020000   301.58325     -2088.5147      623.82584     -116.24535      0.87825639   
   2025000   304.22226     -2088.9295      570.17405     -158.51228     -3.2622899    
   2030000   304.32146     -2112.3996      602.31575     -149.39714     -3.6878154    
   2035000   287.94828     -2094.6532      614.03387     -193.14062      10.083042    
   2040000   300.52952     -2123.7044      622.18779     -157.7845       6.4792432    
   2045000   290.98526     -2110.825       619.28188     -190.48543      3.1937125    
   2050000   298.14641     -2117.2426      622.67965     -161.48621     -3.1143563    
   2055000   296.40543     -2109.2244      610.9188      -173.01316     -7.5119912    
   2060000   292.77177     -2097.9612      593.09844     -195.81718     -25.977477    
   2065000   303.97361     -2087.9964      592.5054      -136.35958     -12.665449    
   2070000   292.1251      -2106.3397      604.2046      -195.98092     -1.8812426    
   2075000   287.05561     -2109.928       597.29752     -229.14309      17.422015    
   2080000   305.32508     -2120.4303      586.0189      -169.23729      9.6493699    
   2085000   309.27274     -2115.5631      598.60375     -134.13441     -12.964849    
   2090000   293.17509     -2117.4375      606.38657     -200.20206     -10.666816    
   2095000   294.77785     -2109.9769      608.55847     -183.40327      4.8098028    
   2100000   305.08304     -2115.8103      629.8896      -121.82877      1.4782135    
   2105000   288.21426     -2111.6818      605.32744     -217.68644     -0.044477814  
   2110000   290.3661      -2115.4746      624.20514     -192.98013     -2.4046226    
   2115000   300.6671      -2111.1042      630.05895     -136.69798     -12.798492    
   2120000   305.38641     -2106.4474      630.58193     -110.41711     -30.15231     
   2125000   298.30975     -2135.9829      618.93094     -183.24485      7.7335765    
   2130000   309.02355     -2135.0214      601.57941     -151.73124     -1.8732318    
   2135000   307.24356     -2119.2812      624.56911     -120.96001      9.4906884    
   2140000   294.08614     -2111.3587      602.73985     -193.69645     -7.8888082    
   2145000   309.30931     -2121.5965      610.11794     -128.49011     -19.91611     
   2150000   280.41912     -2107.2184      612.11742     -241.28679      1.7493207    
   2155000   308.46417     -2102.7701      619.43099     -104.12951     -9.5695293    
   2160000   301.99255     -2103.5821      602.88567     -150.42285     -19.785035    
   2165000   298.42015     -2099.9733      587.82832     -177.84429     -1.4947557    
   2170000   292.94392     -2090.381       607.68333     -172.88238     -3.6495644    
   2175000   299.63225     -2111.0443      601.50027     -169.82382      7.1187847    
   2180000   301.34164     -2083.7277      583.84623     -152.51819      11.651685    
   2185000   302.62703     -2070.037       609.6984      -107.22804     -31.103963    
   2190000   305.12156     -2084.0193      581.0788      -138.67641      6.9081088    
   2195000   300.49965     -2091.8505      628.18968     -120.06232     -3.255363     
   2200000   291.45555     -2104.8657      617.60521     -184.10002      5.4367524    
   2205000   298.44654     -2114.3991      621.02281     -158.95766     -2.416874     
   2210000   304.6638      -2104.9686      625.07288     -117.67833      2.8663098    
   2215000   301.89633     -2097.57        622.34887     -125.37776     -13.45292     
   2220000   291.8855      -2096.528       595.80801     -195.6372      -4.8354041    
   2225000   301.2459      -2114.701       594.81561     -172.95017     -3.5306666    
   2230000   287.99063     -2096.577       616.7006      -192.20833      18.788676    
   2235000   296.86009     -2106.6561      598.00365     -181.32714      9.3582878    
   2240000   307.58206     -2111.8671      639.95224     -96.649319      10.170057    
   2245000   306.37382     -2107.5606      590.13128     -147.56607     -1.3973425    
   2250000   303.09618     -2070.3175      619.75324     -95.355996     -2.6821254    
   2255000   295.65033     -2092.582       603.65875     -167.00704     -10.283432    
   2260000   293.26653     -2074.6116      620.66382     -142.69006      14.827087    
   2265000   296.89014     -2073.5464      619.93027     -126.1565       7.5357491    
   2270000   302.52073     -2095.7609      589.7164      -153.40919      10.124267    
   2275000   295.49027     -2066.7299      587.09412     -158.43525     -18.758939    
   2280000   302.06537     -2084.2958      582.78544     -150.91115      40.207816    
   2285000   288.11557     -2083.5364      621.41403     -173.89567      18.783346    
   2290000   299.96366     -2098.6421      650.06065     -107.37938     -13.589327    
   2295000   311.83784     -2103.5221      626.30149     -82.926594      0.40771487   
   2300000   288.95687     -2103.0938      590.34999     -220.75551     -0.92747248   
   2305000   299.05234     -2099.204       630.05279     -132.02383      15.917874    
   2310000   294.98255     -2094.4133      636.85006     -138.63287     -6.8926406    
   2315000   305.40558     -2092.4605      596.43138     -130.49506      22.280555    
   2320000   297.25635     -2089.8131      609.43813     -151.2779      -6.9463651    
   2325000   296.2949      -2122.5922      639.54901     -158.24498     -12.22515     
   2330000   308.81731     -2124.8147      574.90503     -169.12104     -13.109452    
   2335000   295.85813     -2099.4536      618.9892      -157.61908      1.9606868    
   2340000   309.80573     -2098.3739      599.10498     -114.0609      -18.502848    
   2345000   300.2798      -2095.7687      614.19164     -138.96147     -8.6506635    
   2350000   290.47877     -2092.9899      578.39175     -215.80511     -4.9089522    
   2355000   289.41974     -2101.8094      632.46529     -175.28624      10.098033    
   2360000   295.67512     -2103.0835      647.06804     -133.98841      2.8377352    
   2365000   301.5431      -2097.9682      615.26287     -134.4413      -19.823212    
   2370000   302.83603     -2121.7568      602.00136     -165.71036      4.590804     
   2375000   300.22167     -2131.198       623.84138     -165.00092     -12.245206    
   2380000   304.11664     -2162.1783      601.90148     -200.50587      7.4602765    
   2385000   289.66668     -2128.6076      631.34305     -202.1025      -18.639334    
   2390000   301.27434     -2154.9475      620.86629     -187.01888     -10.083664    
   2395000   297.99644     -2159.1597      611.99432     -214.7592      -5.424871     
   2400000   299.18349     -2150.5221      665.79354     -147.0148      -8.9524402    
   2405000   296.12538     -2159.3666      634.74522     -200.58112      35.868972    
   2410000   298.19811     -2142.2989      578.59789     -230.39315      4.8831867    
   2415000   305.0366      -2125.0727      629.59601     -131.59246      14.346838    
   2420000   295.13653     -2144.407       608.22106     -216.5671       26.122673    
   2425000   300.57076     -2132.9122      588.63636     -200.35939      17.063017    
   2430000   288.75328     -2137.6557      621.45301     -225.12465     -27.288049    
   2435000   288.14721     -2137.0578      562.87022     -285.81944      15.653734    
   2440000   298.04612     -2151.8851      605.23986     -214.01691     -6.1535677    
   2445000   299.54716     -2118.3729      652.52298     -126.5101       15.820275    
   2450000   295.16602     -2145.1186      600.56051     -224.80733      11.481587    
   2455000   297.85507     -2142.1726      609.06082     -201.33769      1.7480724    
   2460000   314.8576      -2137.0483      610.82067     -118.4316      -4.9927054    
   2465000   301.47477     -2171.9351      609.62174     -214.3548      -8.4619453    
   2470000   297.17478     -2147.5937      629.35943     -189.50193      14.504171    
   2475000   306.74853     -2115.3264      606.63965     -137.14817      13.375362    
   2480000   303.16397     -2120.1846      635.35316     -129.32011      7.8506464    
   2485000   285.59996     -2131.8808      622.15128     -232.75071     -17.095124    
   2490000   304.13856     -2155.1384      622.44505     -172.82442     -9.1266549    
   2495000   295.75112     -2140.2502      598.12045     -219.76291     -13.437369    
   2500000   296.30512     -2145.1589      572.75642     -247.55859      2.3446445    
   2505000   305.41648     -2111.2323      620.8429      -124.80665      2.4670253    
   2510000   287.41155     -2116.3307      603.63774     -227.61409      24.583266    
   2515000   292.08636     -2102.5498      605.88394     -190.68489     -21.467746    
   2520000   305.96735     -2109.7691      603.34461     -138.37869     -14.685995    
   2525000   298.5312      -2107.6497      640.72218     -132.13028      14.845465    
   2530000   303.12222     -2118.7336      631.73857     -131.67041      8.1235598    
   2535000   305.45476     -2083.1889      639.35469     -78.080334      1.8771163    
   2540000   299.87922     -2103.6272      605.17027     -157.63243     -4.5948162    
   2545000   293.9727      -2093.7265      625.6         -153.71132     -13.450733    
   2550000   293.79324     -2044.2719      601.37154     -129.28754     -4.4593897    
   2555000   302.27961     -2076.1841      635.28349     -89.343435      4.298491     
   2560000   300.0335      -2053.8928      594.04869     -118.32977      14.416656    
   2565000   300.82048     -2040.9559      587.61321     -108.30957      4.162706     
   2570000   312.80472     -2044.5183      610.62904     -35.27213      -14.890938    
   2575000   308.12072     -2040.9636      607.60189     -55.687676     -17.772576    
   2580000   299.2753      -2044.4039      633.06156     -73.218124     -27.267646    
   2585000   292.15444     -2039.9786      622.6369      -111.05638     -2.5485707    
   2590000   297.8162      -2065.4072      602.64229     -131.16459      6.5176793    
   2595000   297.24209     -2068.1654      629.47569     -109.6564      -20.670592    
   2600000   293.45784     -2041.1418      589.52287     -139.50579     -15.0466      
   2605000   307.47521     -2044.3631      622.93433     -46.640979      3.1280266    
   2610000   298.86954     -2057.589       599.73975     -121.53927      1.5749571    
   2615000   300.76769     -2070.5957      620.47666     -105.32206      2.6455813    
   2620000   287.9191      -2044.9108      575.02642     -182.5362       3.1733628    
   2625000   297.91724     -2099.9643      661.16361     -106.74862     -8.8502322    
   2630000   308.87987     -2082.8389      623.79722     -77.973323      12.558985    
   2635000   305.12574     -2097.2624      594.87982     -138.09979      7.2625963    
   2640000   295.70867     -2085.8514      586.74179     -176.93257     -3.3695945    
   2645000   312.89962     -2086.5498      611.11937     -76.388978      10.157524    
   2650000   296.94013     -2090.768       588.01696     -175.0679       1.4167812    
   2655000   303.85744     -2090.3923      601.39014     -130.39021     -3.8482997    
   2660000   303.12335     -2122.9677      614.90461     -152.73342      16.380707    
   2665000   310.42224     -2114.4771      608.55197     -117.96047     -6.9686183    
   2670000   298.96678     -2116.8356      588.12256     -191.96821      0.091949736  
   2675000   285.83071     -2104.7942      618.04376     -208.73989      0.8103987    
   2680000   294.9276      -2087.3277      641.7038      -126.93919      7.3265608    
   2685000   310.89245     -2087.5991      622.04417     -75.487896     -4.0466775    
   2690000   308.35579     -2094.5964      595.84762     -120.02375     -16.78058     
   2695000   299.14808     -2102.1984      599.08811     -165.55489      7.601801     
   2700000   301.58576     -2097.3837      630.01067     -118.9182      -5.1962359    
   2705000   299.66188     -2095.8249      585.19295     -170.77924     -3.7983567    
   2710000   306.09664     -2089.5723      622.32285     -98.625524     -6.2321885    
   2715000   306.00107     -2117.4268      611.84546     -137.38478     -5.8423384    
   2720000   297.37429     -2116.4444      589.39619     -197.42379      13.718272    
   2725000   296.21934     -2133.2131      598.85937     -209.89338      3.2555134    
   2730000   312.56652     -2170.3121      617.64123     -155.11872      20.345637    
   2735000   299.16727     -2124.1288      623.59375     -162.89387      5.3842112    
   2740000   295.76115     -2140.0389      623.43555     -194.19168     -6.5357695    
   2745000   297.09209     -2124.7373      637.63838     -158.73629     -11.893685    
   2750000   301.24645     -2152.4708      638.07458     -167.45859     -4.9150696    
   2755000   300.57542     -2143.4491      641.45044     -158.06131     -2.7195384    
   2760000   283.09554     -2143.7602      605.20026     -272.77893      6.3148116    
   2765000   299.96821     -2087.2027      631.97015     -114.01012      0.32590573   
   2770000   300.95847     -2133.2581      627.99306     -159.61493      4.938546     
   2775000   290.18938     -2130.7055      624.44381     -208.76257     -13.383702    
   2780000   313.26943     -2144.8034      620.87618     -123.2322       22.444323    
   2785000   294.5871      -2102.8099      600.11138     -185.53621     -9.3000934    
   2790000   294.64411     -2151.3953      595.37605     -238.60202     -9.4194633    
   2795000   301.40483     -2147.1614      616.02459     -183.49102      0.25465427   
   2800000   310.17497     -2153.3822      608.50301     -158.02017     -0.79322353   
   2805000   299.30292     -2137.5301      586.84011     -212.44229      1.0878269    
   2810000   309.97749     -2114.2114      589.29648     -138.9389      -0.81633021   
   2815000   298.25857     -2121.8735      635.59958     -152.69566     -10.411283    
   2820000   291.38367     -2115.4155      593.74173     -218.83466      11.038201    
   2825000   290.56827     -2121.7703      612.55817     -210.01893      2.277641     
   2830000   308.66111     -2119.2946      628.60548     -110.59891      19.677454    
   2835000   301.26861     -2124.8934      603.01684     -174.83974      13.937822    
   2840000   290.27722     -2107.406       634.64079     -174.87331      1.5072078    
   2845000   296.74245     -2100.5083      610.89149     -162.81748     -12.669429    
   2850000   303.19747     -2118.2155      611.67545     -150.879       -4.7691267    
   2855000   294.49767     -2126.3201      594.1785      -215.37923     -8.1758693    
   2860000   308.42996     -2137.394       601.88913     -156.44818     -2.281067     
   2865000   304.52527     -2132.0303      610.02679     -160.40552     -6.0133247    
   2870000   307.89594     -2141.9455      599.25034     -166.0262       6.0237669    
   2875000   310.85934     -2118.6144      620.18393     -108.51148     -6.6189612    
   2880000   301.46613     -2142.995       621.1518      -173.92326     -11.173847    
   2885000   293.83845     -2156.1437      592.37614     -249.95262     -14.119305    
   2890000   297.03198     -2128.4667      605.60569     -194.7671      -12.685548    
   2895000   304.04389     -2132.0095      589.34638     -183.21743     -4.6361504    
   2900000   296.84516     -2149.0877      625.14437     -196.68477     -3.0198399    
   2905000   295.29668     -2126.6532      622.42998     -183.88829      4.2364768    
   2910000   296.98399     -2143.4269      606.87749     -208.67017     -1.5260027    
   2915000   302.90033     -2128.6354      605.08476     -169.21819     -13.452769    
   2920000   315.53987     -2136.532       603.3541      -122.33126      12.980844    
   2925000   298.65966     -2152.7887      648.24801     -169.16912     -0.65872053   
   2930000   298.87859     -2134.739       603.12819     -195.26034      1.2292556    
   2935000   299.58538     -2153.2561      591.69997     -222.04545      14.759802    
   2940000   303.76214     -2147.2587      594.26068     -194.81213     -21.661569    
   2945000   299.84174     -2131.8323      583.41        -207.76535     -14.601417    
   2950000   302.88555     -2144.0851      589.26024     -200.55839     -4.6095952    
   2955000   302.02118     -2147.4676      615.82792     -181.23797      20.790011    
   2960000   288.84234     -2150.5657      616.38722     -242.70228      9.6771933    
   2965000   302.02646     -2151.6008      585.59655     -215.57904      0.37021707   
   2970000   306.69637     -2172.5256      569.88458     -231.33557     -1.5849452    
   2975000   296.79136     -2141.595       579.89083     -234.68616     -20.950013    
   2980000   288.97575     -2144.6405      634.37479     -218.19295      0.94361824   
   2985000   289.07295     -2140.1306      616.00401     -231.61927     -24.279845    
   2990000   301.33776     -2124.98        609.32448     -168.30955      11.441903    
   2995000   299.25176     -2131.5114      620.67573     -172.81673     -2.1839041    
   3000000   294.42155     -2145.7295      620.91506     -208.39238      6.9876882    
   3005000   300.258       -2136.3877      590.10085     -203.76873      5.9903152    
   3010000   302.08759     -2144.5238      624.74949     -169.07574      5.2475393    
   3015000   292.8824      -2144.5999      602.58439     -232.47533     -3.2890276    
   3020000   289.11937     -2159.4332      604.006       -262.7123      -8.8370221    
   3025000   298.94382     -2147.7066      573.73828     -237.32624     -18.995148    
   3030000   304.35014     -2178.9309      575.82618     -242.28982     -5.9427641    
   3035000   312.63107     -2153.0046      604.38808     -150.77571     -27.48662     
   3040000   297.15746     -2147.1396      623.84872     -194.63598      4.5855797    
   3045000   299.4203      -2167.5054      607.0359      -221.69693     -4.9775053    
   3050000   292.42532     -2157.416       612.17472     -237.74484      1.8743555    
   3055000   284.29733     -2162.072       609.1199      -281.79757     -13.786086    
   3060000   299.6604      -2164.4168      596.19633     -228.3744       15.528019    
   3065000   303.77668     -2189.9589      600.85279     -230.85528     -7.8992966    
   3070000   293.47313     -2190.4669      603.78917     -274.49624      0.067991758  
   3075000   293.26768     -2179.1571      582.78307     -285.11116      1.8844741    
   3080000   300.42984     -2179.3698      601.50311     -234.58028     -8.6078714    
   3085000   297.94104     -2180.6092      625.45847     -222.99225      1.4808932    
   3090000   299.27325     -2157.5786      615.01931     -204.4442       13.572245    
   3095000   293.65662     -2163.1397      672.86632     -177.27145      4.0018694    
   3100000   303.16475     -2159.5976      614.16667     -189.91616      6.6743502    
   3105000   304.79452     -2178.1354      606.1945      -209.13902     -10.644094    
   3110000   308.07597     -2159.6483      595.4851      -186.68931      11.27097     
   3115000   298.57151     -2182.4592      627.13743     -220.34436      9.5219338    
   3120000   302.81074     -2170.773       597.33264     -219.50845     -4.7418282    
   3125000   306.94831     -2165.9625      586.4582      -207.07244      2.5190825    
   3130000   308.71226     -2177.3222      626.04747     -170.95581     -8.5033134    
   3135000   296.34522     -2160.9771      623.21104     -212.74289      5.5834653    
   3140000   286.53999     -2173.666       611.8939      -280.59023     -1.2973642    
   3145000   297.96162     -2178.187       607.63747     -238.29904     -8.3429793    
   3150000   305.76766     -2172.6013      592.57015     -212.8782       2.8350496    
   3155000   313.02903     -2181.167       622.89115     -158.65578      11.468506    
   3160000   289.99687     -2150.4502      586.97011     -266.84176     -2.8648216    
   3165000   299.75419     -2163.9447      583.80588     -239.87333      34.851394    
   3170000   303.93694     -2178.5428      630.57111     -189.00429      8.9258142    
   3175000   304.71887     -2163.1754      597.28729     -203.42448      9.5174859    
   3180000   302.18206     -2165.6659      613.61907     -200.92582      21.628265    
   3185000   294.66422     -2166.7214      611.01947     -238.19481     -3.2890315    
   3190000   297.22956     -2138.8415      636.52231     -173.34193      5.187478     
   3195000   309.42014     -2128.9847      656.25577     -89.244945      6.2382816    
   3200000   315.16734     -2131.6272      614.28986     -108.15635      7.8102111    
   3205000   308.38959     -2139.297       623.31587     -137.10499      4.373601     
   3210000   301.25663     -2140.0154      614.8966      -178.13562      6.4910057    
   3215000   291.12273     -2143.8574      609.82865     -232.35641      0.73152889   
   3220000   304.51314     -2136.8451      570.87191     -204.42945      6.9966331    
   3225000   297.38346     -2123.0791      594.6722      -198.7415       0.65173416   
   3230000   287.41177     -2174.2139      588.43026     -300.70384     -3.8016191    
   3235000   301.45428     -2149.5798      624.29344     -177.4195      -5.046492     
   3240000   309.06696     -2137.1028      594.74141     -160.45652     -13.4029      
   3245000   299.08233     -2170.5802      631.45136     -201.86739      7.3490707    
   3250000   311.54639     -2174.3736      611.28294     -170.09975     -5.8008129    
   3255000   302.99364     -2152.4441      610.48344     -187.21087      10.113008    
   3260000   295.96767     -2140.736       616.48215     -200.91871     -2.874509     
   3265000   305.10421     -2135.9087      617.42575     -154.29641      3.5770777    
   3270000   301.56116     -2153.7698      627.55404     -177.87095     -18.06183     
   3275000   293.54565     -2136.9649      639.49373     -184.96538      4.7527792    
   3280000   307.04287     -2128.162       637.37644     -117.93085      6.4130951    
   3285000   312.83279     -2120.1428      610.0704      -111.32972     -6.1393985    
   3290000   305.95364     -2143.9027      615.89404     -160.02413      17.731175    
   3295000   297.445       -2099.2874      623.44319     -145.90369     -13.079506    
   3300000   299.70224     -2113.992       629.34064     -144.61821      4.9544822    
   3305000   303.64869     -2127.7933      593.75804     -176.35667     -3.3234518    
   3310000   304.41543     -2129.5991      619.37892     -149.11336      2.7811777    
   3315000   298.02239     -2153.4946      610.87281     -210.09961      0.028503923  
   3320000   296.88278     -2131.6504      614.19987     -190.02373     -8.4063745    
   3325000   298.24802     -2138.551       624.78229     -180.23764      9.7418242    
   3330000   296.81183     -2124.9273      621.83824     -175.97952      8.1632866    
   3335000   298.59346     -2119.634       597.69222     -186.86622      12.802124    
   3340000   289.81651     -2130.5019      613.39461     -221.27535      0.66129461   
   3345000   306.92432     -2113.5726      587.41883     -153.82911      3.6618912    
   3350000   300.97007     -2116.8156      621.85116     -149.26255      14.903045    
   3355000   305.32911     -2106.266       615.88855     -125.18536     -12.204252    
   3360000   294.80312     -2129.1924      604.52735     -206.53686     -6.339262     
   3365000   302.52874     -2103.2503      615.31493     -135.26428     -18.60258     
   3370000   307.5403      -2116.3671      630.16129     -111.12702     -8.8800414    
   3375000   310.28041     -2100.12        610.49568     -102.2939      -5.8345342    
   3380000   296.62823     -2104.9263      602.59146     -176.04619     -3.3309628    
   3385000   288.99924     -2089.6537      594.69035     -202.78556      1.7797222    
   3390000   282.65285     -2091.2699      608.54887     -218.91932     -6.7565284    
   3395000   297.7636      -2089.4607      601.39412     -156.70144     -4.8733741    
   3400000   303.41462     -2084.2758      614.17436     -113.46942     -6.1872211    
   3405000   298.68581     -2107.12        586.09227     -185.5392       25.309463    
   3410000   298.29217     -2072.4894      605.4643      -133.29669      4.7155045    
   3415000   308.20613     -2083.3457      611.98583     -93.303987      13.9042      
   3420000   309.32982     -2100.9563      589.03909     -128.83705      6.7753683    
   3425000   301.46008     -2116.0211      600.92474     -167.20349     -9.9533712    
   3430000   304.84154     -2063.5169      588.21407     -112.29078     -12.408669    
   3435000   302.83742     -2080.8723      595.09025     -131.73084      0.08527885   
   3440000   298.19151     -2073.4507      634.11196     -106.0604      -7.1882873    
   3445000   294.38339     -2058.336       627.55148     -114.53303      4.3120462    
   3450000   306.09215     -2047.7411      594.72151     -84.415783      2.2778347    
   3455000   307.67698     -2046.2358      613.48685     -57.058975      3.5986491    
   3460000   303.71653     -2061.2191      657.6614      -45.575777      13.075849    
   3465000   298.10947     -2073.9925      633.42962     -107.65137     -2.1030901    
   3470000   295.52075     -2053.0789      592.63997     -139.1021      -11.054633    
   3475000   292.0096      -2085.2144      616.07782     -163.4989      -5.8332855    
   3480000   295.57148     -2081.6437      623.17777     -136.90226     -6.9889323    
   3485000   302.03684     -2076.6763      590.30464     -135.90004     -15.421839    
   3490000   294.26497     -2064.85        594.22011     -154.90794     -4.5930996    
   3495000   296.45034     -2073.9597      619.42868     -129.03776      8.3335625    
   3500000   304.98246     -2064.3065      636.30442     -64.359876      1.8620643    
   3505000   303.34986     -2061.8455      634.64931     -70.853754     -1.3720671    
   3510000   297.32681     -2078.6798      638.57201     -110.69568     -31.873988    
   3515000   302.45654     -2100.4926      600.55418     -147.59021      2.79471      
   3520000   312.7318      -2097.0144      622.00134     -76.721942      0.76757538   
   3525000   311.65247     -2081.0518      604.88545     -82.701112      5.9375644    
   3530000   289.13772     -2071.5135      574.29943     -204.41713      2.6103697    
   3535000   312.16427     -2093.6914      625.9422      -71.995571     -16.415251    
   3540000   299.69287     -2093.5555      634.20554     -119.35863     -9.2678952    
   3545000   307.77904     -2072.27        621.64148     -74.482275     -12.981996    
   3550000   295.14768     -2077.8498      672.33249     -85.848563     -13.395528    
   3555000   289.84914     -2063.1856      603.53519     -163.67254      8.8805875    
   3560000   308.82364     -2053.6982      612.82738     -60.053901      0.87880527   
   3565000   291.43429     -2085.4269      606.99349     -175.36799      0.82889511   
   3570000   292.21357     -2076.8454      618.45225     -151.84342      10.438563    
   3575000   297.86291     -2035.3697      608.75283     -94.807751      1.3864495    
   3580000   309.92406     -2051.2566      641.63387     -23.885537      18.298041    
   3585000   297.94077     -2044.218       601.76183     -110.29894      5.2408835    
   3590000   289.17966     -2054.7494      619.48194     -142.28299     -0.27594877   
   3595000   292.95634     -2065.6317      621.94508     -133.81579     -5.6992891    
   3600000   298.54045     -2031.8732      600.08257     -96.952096     -10.286632    
   3605000   300.05346     -2036.2577      609.02414     -85.630048      5.442938     
   3610000   296.22237     -2044.541       623.45155     -96.615517     -1.7945099    
   3615000   303.52655     -2049.5058      609.75251     -82.620864      6.5456961    
   3620000   300.42042     -2023.5612      595.63839     -84.678501     -1.5895677    
   3625000   303.3299      -2013.6574      631.93635     -25.467882     -5.2910085    
   3630000   299.07861     -2022.1076      615.56867     -69.294195      6.3256889    
   3635000   299.69789     -2031.826       616.20303     -75.609277      1.811986     
   3640000   300.00734     -2044.706       617.58168     -85.726915      16.567767    
   3645000   309.8668      -2047.4929      628.20357     -33.808172     -26.163555    
   3650000   300.12209     -2006.3469      597.78201     -66.654522      18.691086    
   3655000   290.27119     -2041.2039      603.44377     -139.89515      1.9442981    
   3660000   290.108       -2017.6847      575.93832     -144.61109     -6.509033     
   3665000   298.38581     -2016.7947      594.43212     -88.215448     -10.573351    
   3670000   296.38993     -2029.2469      617.29601     -86.727758      7.4249391    
   3675000   287.1778      -2013.3519      631.54157     -97.776624     -22.763093    
   3680000   288.44785     -2019.7815      633.8804      -96.188761     -6.9441925    
   3685000   297.14115     -2045.2673      623.30287     -93.382435     -0.17367796   
   3690000   302.13169     -2034.8941      597.99904     -85.999299     -1.595218     
   3695000   311.58952     -2023.3578      616.37645     -13.797601      13.048245    
   3700000   289.46955     -2042.344       612.06554     -135.99788     -7.2633035    
   3705000   292.18415     -2049.9514      620.60913     -122.92411      19.31756     
   3710000   300.07162     -2037.8042      608.73904     -87.380415      12.137208    
   3715000   291.89027     -2041.3815      622.88485     -113.39248      25.449626    
   3720000   294.84675     -2029.4884      592.52086     -118.64432     -20.399547    
   3725000   304.11626     -2027.1734      613.57598     -53.828171     -3.7561428    
   3730000   302.43762     -2052.0992      631.5844      -68.251156      13.553995    
   3735000   307.09663     -2037.4583      627.02127     -37.341969     -5.3538357    
   3740000   306.86776     -2051.0182      582.05546     -96.891043     -0.0025709778 
   3745000   296.06886     -2060.1284      600.23186     -136.109        3.1737405    
   3750000   305.15034     -2049.7266      613.2099      -72.123852     -8.4935955    
   3755000   289.00134     -2027.7277      601.5065      -134.03407      25.899935    
   3760000   302.06229     -2048.4         611.13563     -86.678911      0.81233093   
   3765000   295.74721     -2038.1923      619.80098     -96.042003     -8.9187846    
   3770000   307.56553     -2060.8189      613.96979     -71.657512     -4.9368329    
   3775000   298.80912     -2035.9129      583.65129     -116.22176     -5.751102     
   3780000   298.03798     -2061.5368      612.41089     -116.53402     -14.037932    
   3785000   290.31318     -2039.9141      626.76078     -115.10069      12.557558    
   3790000   304.96574     -2047.7189      608.24521     -75.906227     -20.227489    
   3795000   282.03991     -2039.1012      621.81072     -156.22935      0.9670301    
   3800000   304.53963     -2006.7874      602.10463     -43.020628      6.8797097    
   3805000   291.34196     -2046.1676      596.62652     -146.88845      0.50188458   
   3810000   301.95968     -2051.6922      620.43508     -81.130454     -13.94203     
   3815000   294.85126     -2072.1601      588.99332     -164.82344     -12.233881    
   3820000   303.2035      -2041.4947      604.32911     -81.477552      2.7693845    
   3825000   295.6574      -2053.3581      622.30841     -109.10191     -9.1844358    
   3830000   287.67204     -2046.1387      601.24164     -158.6535      -9.2788128    
   3835000   295.39531     -2050.3811      611.55745     -118.04774      11.103802    
   3840000   306.53294     -2056.927       633.24379     -53.108449     -6.0954951    
   3845000   305.16267     -2044.438       575.70096     -104.2891       6.3480676    
   3850000   306.57322     -2045.431       611.18308     -63.493058      12.074429    
   3855000   311.42322     -2069.6209      600.55473     -76.626021     -31.239111    
   3860000   290.17946     -2060.8788      609.64421     -153.77981     -5.0765364    
   3865000   288.71016     -2072.7648      602.12554     -179.75405     -6.5950443    
   3870000   295.22272     -2074.0984      601.63088     -152.46324     -11.558304    
   3875000   298.56628     -2080.5266      610.64475     -134.92779      1.0598863    
   3880000   300.03234     -2088.2775      586.71415     -160.05422      14.737291    
   3885000   303.33983     -2104.2005      615.1928      -132.71004     -2.9833866    
   3890000   295.15679     -2104.3349      605.40813     -179.21729     -5.3739232    
   3895000   291.20569     -2110.1239      572.47331     -235.60732      3.5634871    
   3900000   298.55969     -2138.7726      608.86038     -194.98764      4.6375992    
   3905000   308.07713     -2132.1341      646.5809      -108.07414      5.3250536    
   3910000   295.288       -2130.2444      609.72496     -200.22324     -21.45353     
   3915000   296.21067     -2123.0875      603.63406     -195.03186     -17.871935    
   3920000   283.5324      -2131.1437      636.79997     -226.60938     -7.7741505    
   3925000   292.56701     -2152.9133      623.03854     -221.74469     -9.6774588    
   3930000   298.83625     -2149.1466      614.89539     -198.09006     -19.223364    
   3935000   306.13137     -2128.9245      609.99217     -150.15313     -3.0414053    
   3940000   300.2366      -2127.8491      608.65044     -176.77627      23.782729    
   3945000   315.30816     -2136.9533      626.52067     -100.62203     -7.9507424    
   3950000   286.98177     -2156.2257      590.32129     -282.74715      15.048441    
   3955000   300.04072     -2125.9917      581.1813      -203.26385     -8.0642179    
   3960000   303.38161     -2108.9475      576.40435     -176.05878      5.2382226    
   3965000   307.32772     -2142.9099      634.85036     -133.93116     -1.5216019    
   3970000   299.96669     -2117.0772      623.02367     -152.83793     -19.673935    
   3975000   299.52276     -2113.0494      612.2489      -161.56985     -18.751147    
   3980000   297.37003     -2131.4038      616.36273     -185.43572      14.131485    
   3985000   304.26101     -2147.3329      610.46068     -176.45584      20.043994    
   3990000   308.94635     -2136.2081      612.4414      -142.40117      12.927246    
   3995000   299.73992     -2135.8195      597.72998     -197.88782      7.2950574    
   4000000   295.61669     -2138.5124      648.11955     -168.62699      4.9447944    
   4005000   279.90271     -2161.856       605.13753     -305.21331      21.915933    
   4010000   296.38968     -2146.5879      615.19126     -206.17458     -18.905028    
   4015000   297.65474     -2155.6334      624.75678     -199.99824      2.4247655    
   4020000   295.64301     -2171.3028      596.6063      -252.81298     -18.142588    
   4025000   291.02739     -2145.961       593.72137     -250.99361      8.1964811    
   4030000   295.59038     -2175.6206      628.95089     -225.02154      2.0229102    
   4035000   298.11143     -2148.6218      628.59929     -187.10218      16.006948    
   4040000   304.59457     -2133.3024      597.8073      -173.58732      21.684907    
   4045000   293.67871     -2135.0621      612.01907     -209.94239     -4.9073116    
   4050000   305.76493     -2151.4725      608.31292     -176.01885      9.5656491    
   4055000   312.01243     -2139.8306      612.52675     -132.22921     -13.054335    
   4060000   296.14987     -2128.7324      616.48197     -188.10063     -12.040348    
   4065000   300.86925     -2155.6234      615.7588      -194.61349     -3.3720478    
   4070000   304.85068     -2123.7032      607.9854      -152.66481     -13.777253    
   4075000   295.19179     -2131.0897      602.1404      -209.08328      0.6340623    
   4080000   312.52072     -2133.3665      594.81548     -141.20367      15.168311    
   4085000   300.48688     -2132.7386      578.849       -210.3481      -6.8387043    
   4090000   296.85077     -2093.0245      629.5238      -136.21708      3.0834929    
   4095000   299.44666     -2108.0358      606.54        -162.60539      9.1576242    
   4100000   299.2782      -2130.6742      599.15097     -193.38608      4.6614277    
   4105000   307.68645     -2130.7407      595.62398     -159.38447     -1.2302995    
   4110000   302.45139     -2116.3907      583.68836     -180.37716     -13.135614    
   4115000   305.72728     -2115.9454      603.00324     -145.96974     -7.5059053    
   4120000   309.87017     -2147.9393      607.87289     -154.57024      17.032968    
   4125000   290.69427     -2126.2024      617.27161     -209.1742       2.1129011    
   4130000   305.07921     -2145.2304      585.5228      -195.63285      7.3737126    
   4135000   314.39081     -2111.4585      592.32525     -113.42437     -4.4194204    
   4140000   302.67009     -2105.9441      601.22689     -151.41416     -14.813211    
   4145000   306.22314     -2110.4505      606.25441     -135.00661      1.268834     
   4150000   293.00801     -2090.9964      625.06729     -155.82726      0.94661084   
   4155000   296.27376     -2118.4509      594.03098     -199.71618     -12.859817    
   4160000   298.92842     -2096.815       559.81105     -200.43071      26.734887    
   4165000   296.37908     -2101.4568      604.7386      -171.5436      -16.773309    
   4170000   293.76697     -2075.3243      576.94193     -184.88707     -5.0251795    
   4175000   288.58866     -2095.4744      612.42845     -192.70399     -22.565695    
   4180000   292.24697     -2081.3172      602.2288      -172.38936      1.6884573    
   4185000   298.66081     -2081.1418      620.91497     -124.85008      9.3457686    
   4190000   293.46957     -2091.0397      612.71937     -166.15475     -16.70995     
   4195000   296.39895     -2054.0035      601.58339     -127.15665      10.954198    
   4200000   310.20358     -2067.3696      631.06399     -49.318741      18.314145    
   4205000   303.42356     -2086.3473      619.83269     -109.84265      27.296528    
   4210000   295.44517     -2086.126       604.02754     -161.09958     -9.7054692    
   4215000   308.66205     -2073.8947      632.3953      -61.405011      15.770873    
   4220000   297.23171     -2041.5371      637.86331     -74.686877      3.4295483    
   4225000   304.17323     -2034.3468      613.37322     -60.94967       38.879782    
   4230000   294.18166     -2062.8691      596.00846     -151.51115     -13.555004    
   4235000   306.48287     -2055.0221      578.07044     -106.60087      36.145651    
   4240000   312.29518     -2057.1977      581.90835     -78.9504        12.406141    
   4245000   301.21937     -2061.9405      630.58603     -84.537881      3.0900283    
   4250000   291.28265     -2049.7283      617.14687     -130.19405      10.708037    
   4255000   306.50599     -2062.9848      642.81971     -49.71088      -13.557865    
   4260000   306.06436     -2062.4441      595.56968     -98.394896     -17.58003     
   4265000   303.48576     -2082.3371      617.40477     -107.9822       8.6830367    
   4270000   296.73293     -2067.4185      605.40972     -135.252        6.7907769    
   4275000   304.63031     -2059.5788      605.50597     -92.005163      6.9672573    
   4280000   291.70088     -2043.5056      628.72683     -110.52136      3.9659611    
   4285000   298.25177     -2066.0008      591.6211      -140.83183      23.24556     
   4290000   299.97675     -2077.7655      589.36872     -147.13619     -0.92891986   
   4295000   302.51094     -2064.9602      623.864       -88.504772      25.610098    
   4300000   309.54538     -2086.5663      608.7109      -93.811392      1.5063357    
   4305000   310.50532     -2048.5541      647.26246     -12.955516      1.368147     
   4310000   297.8147      -2034.4823      611.93717     -90.951527     -18.532331    
   4315000   298.79916     -2041.876       622.54679     -83.333906     -1.2924685    
   4320000   296.59756     -2042.8965      600.29378     -116.45128     -2.1469448    
   4325000   294.25287     -2034.1241      638.42997     -80.026281      11.362914    
   4330000   307.12558     -2047.4997      638.10955     -36.165644     -2.2235934    
   4335000   295.88626     -2038.1175      640.59774     -74.548704      2.3492506    
   4340000   290.91373     -2049.8298      641.29205     -107.7999      -9.5545906    
   4345000   302.85892     -2067.7544      630.49487     -83.112122     -6.9629972    
   4350000   297.00554     -2050.4195      597.36366     -125.08023      18.271929    
   4355000   298.67897     -2038.1827      591.81546     -110.90932     -0.32888703   
   4360000   306.8454      -2077.2738      656.4332      -48.868804     -20.824125    
   4365000   297.11448     -2074.2646      628.12486     -117.67699      25.444249    
   4370000   294.86628     -2086.0754      599.0464      -168.61843      3.3087053    
   4375000   290.99377     -2091.3607      593.86976     -196.39526     -0.75630097   
   4380000   302.64044     -2099.766       592.9513      -153.64421     -12.678748    
   4385000   307.16339     -2064.0641      596.04603     -94.62447       0.024421794  
   4390000   294.10573     -2088.2614      599.8232      -173.42824     -6.6292392    
   4395000   292.39545     -2069.8001      623.68152     -138.75563      8.9252927    
   4400000   308.21094     -2095.6017      595.46272     -122.06158      24.102904    
   4405000   308.1186      -2080.7815      591.94288     -111.17406      10.466846    
   4410000   307.36743     -2069.7781      592.29476     -103.17743      6.6471881    
   4415000   295.90764     -2081.7709      603.07922     -155.62498     -11.532884    
   4420000   301.54479     -2096.5093      615.37969     -132.85799      0.92488296   
   4425000   291.71721     -2086.5317      630.32893     -151.87236      1.330369     
   4430000   295.72498     -2098.2158      616.19894     -159.76693      9.1711218    
   4435000   307.51758     -2096.8067      615.61084     -106.21865      3.2470944    
   4440000   294.89987     -2097.4643      587.31743     -191.58609      3.5081637    
   4445000   307.86918     -2106.8613      595.01808     -135.29387     -1.0838198    
   4450000   290.01869     -2102.3833      612.97292     -192.67447      12.51088     
   4455000   298.05813     -2107.4531      622.46834     -152.30277      5.3116163    
   4460000   301.88229     -2098.7099      605.4703      -143.45896     -13.30329     
   4465000   303.11517     -2100.6123      623.11752     -122.20171      17.24314     
   4470000   307.78092     -2102.2637      631.3792      -94.729785     -35.448103    
   4475000   298.82286     -2078.0472      639.79876     -102.14713      21.641416    
   4480000   295.38747     -2114.1464      628.75358     -164.65193      2.8620438    
   4485000   307.97282     -2111.9416      634.3967      -100.53223      20.367754    
   4490000   294.87011     -2111.4029      634.55833     -158.41693      22.609279    
   4495000   300.84106     -2102.8109      574.71263     -182.97314     -4.2366623    
   4500000   305.34896     -2114.0448      609.23067     -139.53324      7.11612      
   4505000   297.91417     -2150.6632      636.9277      -181.69718      10.997601    
   4510000   297.04774     -2162.467       630.78631     -203.51638      0.055224154  
   4515000   286.81797     -2150.3123      608.03114     -259.85637      5.4289025    
   4520000   300.20564     -2165.9307      584.60783     -239.03887      25.39274     
   4525000   288.2151      -2159.5281      599.04934     -271.80702     -13.592168    
   4530000   299.96354     -2153.4658      629.07846     -183.18584     -20.576824    
   4535000   293.75424     -2181.3534      600.84583     -267.06919      13.879604    
   4540000   286.22697     -2172.5537      624.03559     -268.73576     -3.9164304    
   4545000   303.41864     -2191.5041      597.57924     -237.27488     -0.88063022   
   4550000   293.71371     -2162.1492      620.25973     -228.63233      5.6880273    
   4555000   303.90705     -2184.2371      568.07616     -257.3271       1.4762687    
   4560000   300.94153     -2203.1214      600.70181     -256.84522      9.9766781    
   4565000   301.07466     -2204.5862      599.63234     -258.78434      1.267378     
   4570000   302.08088     -2188.5616      618.30273     -219.59031      4.08141      
   4575000   296.69672     -2178.6584      644.97172     -207.09185      1.7342668    
   4580000   310.39186     -2190.7744      628.56353     -174.3821       4.9817973    
   4585000   300.35918     -2160.7497      607.90533     -209.87391     -3.0540579    
   4590000   301.9668      -2174.5847      643.26318     -181.16295      4.7430359    
   4595000   293.54792     -2168.4831      592.08629     -263.88091     -1.2105428    
   4600000   305.42592     -2173.0509      642.87497     -164.55099      1.9429077    
   4605000   306.65954     -2148.3872      602.24339     -175.00308      1.1227707    
   4610000   296.23352     -2182.7699      591.23438     -267.01177     -17.899048    
   4615000   292.51956     -2175.0553      603.22499     -263.9125      -4.3601126    
   4620000   290.99198     -2160.0498      612.17098     -246.79103      10.266724    
   4625000   297.66275     -2160.9151      617.23549     -212.76541      7.3058562    
   4630000   295.49889     -2148.7772      581.68762     -245.85046     -18.807899    
   4635000   300.76721     -2160.6387      583.83617     -232.00761      1.2511851    
   4640000   315.88653     -2132.9322      582.93954     -137.59603     -13.236623    
   4645000   308.04617     -2141.905       634.20797     -130.35629      17.868015    
   4650000   298.92858     -2139.9156      594.67974     -208.66186      0.54440047   
   4655000   305.36181     -2148.7273      616.55575     -166.83322      8.2758944    
   4660000   308.04389     -2151.0492      586.7186      -187.00009      12.398839    
   4665000   298.34419     -2144.8115      591.29614     -219.55434      1.3771461    
   4670000   296.93094     -2160.9464      605.95102     -227.35322      2.6957652    
   4675000   294.56923     -2137.8219      609.96327     -210.77622     -4.1061726    
   4680000   296.57587     -2183.2249      611.53727     -245.6331       1.0253562    
   4685000   301.73651     -2150.0598      633.11522     -167.81573     -11.170947    
   4690000   311.80456     -2153.4223      637.0154      -122.26168     -0.20896557   
   4695000   308.84786     -2166.9214      609.33317     -176.66308     -7.9995345    
   4700000   307.2472      -2162.0178      638.08688     -150.16262      19.787085    
   4705000   301.07875     -2171.7094      627.08713     -198.4344       14.000805    
   4710000   290.59419     -2174.9125      620.58576     -255.01759     -15.257265    
   4715000   304.18607     -2187.3649      621.59099     -205.69257     -18.276301    
   4720000   308.50903     -2176.6682      619.22791     -178.03004     -8.245785     
   4725000   303.80219     -2166.8548      657.87794     -150.61198     -1.5080405    
   4730000   309.39562     -2167.7417      623.69455     -160.67279      14.559724    
   4735000   300.68388     -2159.2705      632.84993     -181.9982      -23.575354    
   4740000   293.52907     -2142.8022      649.80761     -180.56303     -10.314724    
   4745000   303.14112     -2145.5788      580.56758     -209.60205      10.158049    
   4750000   292.68975     -2137.6236      607.18982     -221.75496      8.6809504    
   4755000   305.96663     -2168.4851      604.66773     -195.77475     -10.220857    
   4760000   302.56558     -2155.7798      609.58819     -193.35585     -25.21188     
   4765000   297.91523     -2137.9726      598.35363     -207.57592     -14.582725    
   4770000   304.94966     -2133.455       632.47389     -137.48562     -2.5899961    
   4775000   305.37735     -2148.4741      611.19662     -171.8696       0.034922636  
   4780000   300.15403     -2145.7412      599.64742     -204.04054     -10.723867    
   4785000   306.09306     -2168.3812      607.34862     -192.42467      20.495297    
   4790000   309.96583     -2173.9905      617.55758     -170.50905     -5.8198287    
   4795000   291.01763     -2142.2745      601.54058     -239.53155      4.7374469    
   4800000   309.72467     -2187.8072      622.9289      -180.03268      13.643684    
   4805000   301.86319     -2145.3869      622.09854     -173.59313      6.4488531    
   4810000   295.60183     -2147.3411      596.54127     -229.10052      3.4683428    
   4815000   290.77982     -2140.5731      650.9327      -189.50123      11.176345    
   4820000   308.24486     -2109.6101      587.29465     -144.08641      12.316822    
   4825000   297.22459     -2106.9747      589.24711     -188.77252      9.6893644    
   4830000   294.38595     -2135.7557      604.22765     -215.26518      2.0293027    
   4835000   303.55693     -2106.831       579.67789     -169.88476     -12.250707    
   4840000   297.4114      -2132.7757      643.00073     -159.98461     -7.2466993    
   4845000   290.23417     -2128.3263      626.16678     -204.46013     -9.752186     
   4850000   304.71292     -2104.9808      628.89859     -113.64515     -18.286301    
   4855000   293.43991     -2101.5863      625.36744     -164.18587      19.127382    
   4860000   308.53873     -2117.9228      634.50531     -103.8745       11.733194    
   4865000   298.55204     -2102.3686      601.28837     -166.18984      6.4693671    
   4870000   295.44112     -2132.1453      619.75078     -191.41379      1.4254881    
   4875000   309.01901     -2107.5076      585.33412     -140.48304     -8.2801843    
   4880000   300.35516     -2122.7023      588.47047     -191.27935      4.6414475    
   4885000   296.16197     -2114.3095      623.32948     -166.77616      5.2745939    
   4890000   304.97607     -2113.098       632.70326     -116.78115      5.8254213    
   4895000   301.25385     -2112.1847      597.23299     -167.98095      3.4805175    
   4900000   297.2897      -2109.8303      618.95533     -161.62873      0.26056445   
   4905000   287.85719     -2110.5753      636.52789     -186.97599     -0.98006494   
   4910000   312.73797     -2105.7228      613.4417      -93.962366      21.297069    
   4915000   302.44848     -2087.9383      630.30525     -105.3208       12.750634    
   4920000   294.74874     -2065.1022      631.1931      -116.0241      -7.1079348    
   4925000   300.0855      -2077.4192      629.65536     -106.01706      12.495863    
   4930000   295.78451     -2063.0637      641.08089     -99.466603      12.908173    
   4935000   312.07921     -2052.0085      579.92946     -76.705772      4.780037     
   4940000   297.27034     -2068.6355      575.14174     -164.33413     -17.576369    
   4945000   297.24908     -2062.9365      631.89702     -101.97494      22.467845    
   4950000   289.3451      -2050.6925      604.26678     -152.70151     -2.0629778    
   4955000   298.91855     -2041.0909      576.0989      -128.46284      14.688878    
   4960000   302.42066     -2034.6702      592.06209     -90.420269     -9.764242     
   4965000   302.43787     -2085.8865      607.71815     -125.90363     -2.6818174    
   4970000   309.31397     -2060.0876      642.56935     -34.509003      10.866132    
   4975000   292.30143     -2059.1307      603.58691     -148.60126      5.3511393    
   4980000   299.8949      -2075.951       639.55712     -95.49926      -2.7640116    
   4985000   295.74413     -2057.4966      595.17522     -139.98578     -8.2628058    
   4990000   298.97225     -2075.0845      602.93145     -135.38382     -11.051081    
   4995000   298.84055     -2064.4501      579.20344     -149.06627      12.440982    
   5000000   294.01051     -2060.5687      596.9604      -149.02406      18.932394    
   5005000   296.86034     -2061.7578      615.96078     -118.47063      19.932443    
   5010000   293.97935     -2053.5721      567.01442     -172.11277      2.9989763    
   5015000   301.26888     -2068.2828      644.29892     -76.945942     -5.2518761    
   5020000   299.60429     -2071.1222      586.09634     -145.43066      5.2870988    
   5025000   305.42849     -2085.4593      560.09539     -159.72749      11.367436    
   5030000   293.72778     -2078.0214      590.65792     -174.04339      9.8500781    
   5035000   295.7896      -2068.1433      626.74673     -118.8577       31.813829    
   5040000   298.36241     -2077.7437      618.62889     -125.07233      27.415079    
   5045000   304.86972     -2084.1025      613.15412     -107.8103      -0.89762963   
   5050000   285.28344     -2105.8912      636.81207     -193.5155      -4.6594907    
   5055000   297.92105     -2089.0978      607.57624     -149.45246     -11.435259    
   5060000   306.89541     -2101.1016      622.29303     -106.61324     -5.2281801    
   5065000   297.97968     -2098.8672      607.34065     -159.19536     -22.129651    
   5070000   303.06032     -2099.8742      639.43066     -105.39563      6.0097251    
   5075000   307.17456     -2092.9177      644.47212     -75.002073      6.6709686    
   5080000   299.43048     -2077.9324      583.82864     -155.28566      20.996262    
   5085000   294.50454     -2105.7001      641.1767      -147.73027     -6.036527     
   5090000   303.39062     -2095.6807      616.31652     -122.83947     -5.4811933    
   5095000   305.14622     -2078.945       623.19725     -91.373369      5.4148421    
   5100000   297.64619     -2091.3489      643.76805     -116.74073     -2.2783405    
   5105000   297.84348     -2091.6768      606.52403     -153.43057     -9.6235701    
   5110000   291.69741     -2082.9221      619.04385     -159.63644      8.0980707    
   5115000   310.8185      -2120.3106      631.80363     -98.770659      19.41107     
   5120000   295.97192     -2105.7166      631.91096     -150.45152      26.306022    
   5125000   304.68725     -2141.1694      610.82178     -168.02538     -6.4899054    
   5130000   292.2928      -2131.7714      630.72837     -194.13907     -4.4032812    
   5135000   290.60599     -2149.4327      634.08435     -215.98641      20.328116    
   5140000   303.37022     -2148.0938      614.38133     -177.27897      7.1959734    
   5145000   290.41014     -2148.1935      603.55821     -246.14911     -14.148667    
   5150000   301.8873      -2140.7592      639.32114     -151.63503      27.402864    
   5155000   299.30754     -2138.6328      596.48943     -203.87505     -11.227554    
   5160000   303.81976     -2147.373       588.98235     -199.94709      25.605139    
   5165000   315.34037     -2150.6337      605.08899     -135.59007      10.389476    
   5170000   289.26745     -2133.6197      593.65534     -246.58737     -19.256661    
   5175000   296.88837     -2138.3513      616.30046     -194.59907      2.3915933    
   5180000   310.38656     -2129.2924      621.4923      -119.99501     -16.93152     
   5185000   299.11091     -2150.5223      614.34043     -198.79265      3.1666397    
   5190000   297.58346     -2126.0543      623.30924     -172.18537     -5.8588785    
   5195000   301.69156     -2103.4155      617.37409     -137.11362     -5.8843242    
   5200000   309.49922     -2136.2075      617.18013     -135.18983      18.005324    
   5205000   312.62026     -2108.7948      632.21526     -78.78715       3.5155504    
   5210000   296.25368     -2128.2813      627.40888     -176.25856     -0.91203211   
   5215000   303.39885     -2112.9191      607.93887     -148.41869     -11.102708    
   5220000   308.60542     -2124.5204      635.78865     -108.8905       2.6011778    
   5225000   285.72971     -2122.9927      615.47019     -229.96355     -9.6974743    
   5230000   300.19007     -2111.7822      614.19441     -155.37343      10.100571    
   5235000   313.27103     -2156.2902      622.95409     -132.63398     -13.073685    
   5240000   313.14474     -2109.5522      594.76429     -114.65047      10.781408    
   5245000   296.82548     -2117.2756      596.79764     -193.30739     -6.5767828    
   5250000   306.13964     -2114.8206      621.95989     -124.04457      12.450283    
   5255000   290.30603     -2116.122       568.70206     -249.39922     -3.07559      
   5260000   301.68257     -2115.358       583.90851     -182.56179      12.48626     
   5265000   302.50615     -2118.8419      607.5912      -158.6806       34.657568    
   5270000   306.61189     -2112.6132      604.99284     -136.69264      6.2296642    
   5275000   289.57318     -2095.5175      579.13368     -221.6398       13.162926    
   5280000   295.7354      -2103.7163      622.72351     -158.69626      8.3589892    
   5285000   303.64497     -2096.7529      613.89207     -125.19889      5.649779     
   5290000   301.78878     -2072.2465      598.25752     -124.62638      28.120243    
   5295000   296.1386      -2082.0579      631.3934      -126.5651       0.29074603   
   5300000   311.07074     -2075.5308      622.95078     -61.715884     -2.6042906    
   5305000   292.18063     -2084.1572      645.80651     -131.94822      17.975903    
   5310000   307.3971      -2080.0734      608.79112     -96.843706     -3.6125416    
   5315000   301.92097     -2073.7907      624.30398     -99.533198      13.266005    
   5320000   306.62334     -2075.6224      600.80156     -103.8419      -8.6345317    
   5325000   295.92404     -2041.2055      620.38464     -97.680874     -21.195084    
   5330000   302.67383     -2023.6676      601.4181      -68.929738     -4.2939321    
   5335000   306.67012     -2045.1551      592.1041      -81.862917     -13.779477    
   5340000   303.39538     -2071.4008      627.70725     -87.147551      7.3051503    
   5345000   307.05325     -2064.7657      634.21851     -57.64606      -19.632483    
   5350000   287.84797     -2084.6843      615.92934     -181.72483     -0.86762138   
   5355000   293.57871     -2048.3063      631.14192     -104.51081      20.027349    
   5360000   289.00231     -2024.2379      612.55199     -119.49436      16.137407    
   5365000   302.14687     -2073.0302      572.77523     -149.29138      7.6070908    
   5370000   293.75625     -2088.176       583.44485     -191.28379     -6.681372     
   5375000   298.34369     -2103.8342      619.43211     -150.44332     -14.514878    
   5380000   299.63511     -2074.2519      630.5316      -103.98727     -2.1366909    
   5385000   299.38828     -2092.1675      639.02565     -114.5125      -12.584988    
   5390000   291.797       -2095.9207      601.72469     -189.5089      -16.516816    
   5395000   296.07145     -2096.8673      612.66418     -160.40395      17.375888    
   5400000   292.69479     -2078.5473      581.64369     -188.20228      13.183446    
   5405000   298.1244      -2092.9253      570.23317     -189.7138      -2.0749249    
   5410000   305.07298     -2086.785       638.18506     -84.553013      10.717774    
   5415000   299.12421     -2087.4923      615.6849      -134.35873      12.244397    
   5420000   301.15941     -2099.9636      592.39563     -161.01949     -8.1703583    
   5425000   293.02681     -2095.0432      608.96883     -175.88851     -11.772468    
   5430000   306.95165     -2097.9532      641.29247     -84.213876     -7.487526     
   5435000   301.10381     -2110.1895      609.45599     -154.43363     -4.3207235    
   5440000   298.79304     -2103.4075      597.95466     -169.48493      33.775211    
   5445000   299.63884     -2071.712       598.29905     -133.66323      4.1173825    
   5450000   315.37358     -2076.9381      630.16968     -36.665301     -6.10631      
   5455000   294.30164     -2079.0972      597.0326      -166.17869      9.082037     
   5460000   302.57836     -2089.8881      614.31019     -122.68501     -15.586235    
   5465000   298.87541     -2099.0571      612.31524     -150.40565      9.0581696    
   5470000   304.54353     -2108.1634      590.68072     -155.80301      9.5313503    
   5475000   303.91731     -2094.4206      628.22327     -107.31771     -10.433548    
   5480000   306.56169     -2096.1875      611.50587     -113.97838      3.236056     
   5485000   305.05158     -2091.309       609.03708     -118.32068      9.8572801    
   5490000   310.4106      -2099.4045      588.9219      -122.57001     -11.270168    
   5495000   298.91188     -2088.4367      593.8892      -158.04813      3.0944174    
   5500000   295.12931     -2075.9987      631.71225     -124.69984      15.855978    
   5505000   304.96701     -2106.7974      595.83435     -147.38998      15.405793    
   5510000   293.19016     -2107.5941      644.2572      -152.42068      6.4711737    
   5515000   306.31149     -2113.0337      599.75613     -143.69307      4.9009624    
   5520000   303.00611     -2127.7925      651.84166     -121.14535     -4.0742651    
   5525000   300.17336     -2092.1787      596.98031     -153.05876     -25.260514    
   5530000   301.23826     -2112.6928      632.74031     -133.05145     -13.814399    
   5535000   288.63781     -2102.5295      628.22996     -183.73783      12.523905    
   5540000   291.804       -2112.2161      617.1948      -190.30286      1.6576373    
   5545000   304.81186     -2086.3304      599.98194     -123.46911     -4.8572352    
   5550000   301.10088     -2106.5212      628.59264     -131.64177      18.495389    
   5555000   290.61128     -2074.973       616.33205     -159.25541     -10.217411    
   5560000   291.43674     -2083.3575      600.74068     -179.54048     -2.5775756    
   5565000   303.8397      -2081.6272      609.2264      -113.86815     -5.0690012    
   5570000   286.6934      -2084.8826      617.59009     -185.42461      8.8471824    
   5575000   302.7261      -2102.2151      648.89848     -99.763078      4.4932142    
   5580000   299.69724     -2101.7653      628.80569     -132.94885     -11.829345    
   5585000   312.46844     -2091.8897      628.12063     -66.655462     -16.254115    
   5590000   291.72966     -2106.8723      598.68331     -203.80294     -1.8297534    
   5595000   307.04614     -2103.0912      576.38549     -153.83641     -8.9188376    
   5600000   295.68523     -2120.068       614.23097     -183.7648       1.7898397    
   5605000   302.22983     -2115.6887      645.68221     -118.67191      3.5546242    
   5610000   297.59273     -2109.1332      630.08923     -148.44293     -5.6454668    
   5615000   304.8388      -2100.089       611.29898     -125.79017     -9.9094703    
   5620000   300.98999     -2095.9177      610.84952     -139.27723     -0.033961739  
   5625000   303.69802     -2080.0321      604.74886     -117.38403     -25.580949    
   5630000   312.59879     -2096.4376      605.3081      -93.433063      9.143717     
   5635000   309.44551     -2082.1026      587.20833     -111.29684      10.89465     
   5640000   300.38633     -2100.6464      598.53058     -159.02394     -9.9895894    
   5645000   310.66043     -2118.6093      610.5433      -119.03643     -2.761194     
   5650000   296.31563     -2140.5199      608.89        -206.73901      19.780749    
   5655000   297.50269     -2114.2095      612.72802     -171.28291      16.799571    
   5660000   290.24435     -2145.949       626.95865     -221.24544      3.7172327    
   5665000   302.56159     -2145.6346      590.28265     -202.53399      18.543924    
   5670000   297.72527     -2149.3492      608.76126     -209.39426     -13.142419    
   5675000   298.34128     -2147.2974      614.44498     -198.90441      6.8734641    
   5680000   294.18802     -2139.7227      610.01942     -214.32536     -13.612171    
   5685000   305.40206     -2154.2248      631.21709     -157.48936      2.059674     
   5690000   294.68224     -2150.5019      597.00951     -235.90474      17.561602    
   5695000   305.21558     -2147.02        593.76617     -188.56936      5.9936897    
   5700000   314.41796     -2179.6722      606.29086     -167.55107      3.8172369    
   5705000   296.26381     -2184.5537      577.67105     -282.22341      3.5217728    
   5710000   300.4737      -2173.6579      623.90224     -206.27316     -15.453269    
   5715000   297.94738     -2184.5957      605.44174     -246.96718      3.0236667    
   5720000   310.38383     -2163.3732      629.81837     -145.76202      7.2746058    
   5725000   293.22003     -2142.644       615.66051     -215.9337       11.945844    
   5730000   291.33196     -2152.6234      578.90817     -271.10735     -8.6587588    
   5735000   303.67322     -2125.3219      621.48901     -146.04463      31.394896    
   5740000   310.1435      -2130.3622      637.96718     -105.67679     -10.327601    
   5745000   302.87616     -2122.3953      567.41361     -200.75726      11.344231    
   5750000   295.73873     -2128.91        630.59712     -176.00143      4.2078258    
   5755000   303.65129     -2144.1076      587.03593     -199.38148      17.148025    
   5760000   305.65067     -2124.5474      633.58181     -124.33568     -10.66512     
   5765000   298.79932     -2132.7532      597.11588     -199.64129      22.357517    
   5770000   290.48062     -2125.6688      606.90494     -219.96251     -6.3680581    
   5775000   297.15302     -2131.0592      639.10921     -163.31495      6.9351014    
   5780000   302.16681     -2120.5339      630.03678     -139.44431      4.986486     
   5785000   303.89457     -2104.3782      580.82627     -164.77394     -5.6824338    
   5790000   300.60397     -2104.6369      581.6097      -178.9622      -14.162339    
   5795000   301.3661      -2111.0846      592.45894     -171.15295     -13.116595    
   5800000   305.36077     -2103.8677      601.32717     -137.20682      8.951348     
   5805000   311.64811     -2099.2807      596.0459      -109.78902     -28.921993    
   5810000   305.49358     -2102.5229      611.27393     -125.32148     -6.1452973    
   5815000   302.85466     -2111.7141      629.55861     -128.02716     -11.627516    
   5820000   297.04876     -2111.4543      605.30556     -177.97987      13.323274    
   5825000   301.68587     -2120.5428      600.12177     -171.51861      8.227994     
   5830000   313.24692     -2115.7963      621.1138      -94.088132     -14.031285    
   5835000   301.60888     -2099.4651      594.61902     -156.28788      9.9663862    
   5840000   308.03158     -2111.1826      627.15646     -106.75065      8.4860319    
   5845000   302.55762     -2107.6109      639.09948     -115.7112       5.3603273    
   5850000   290.34824     -2120.2336      650.62182     -171.40237      16.038598    
   5855000   288.89942     -2105.9176      626.98116     -187.20502      0.35823389   
   5860000   302.53298     -2126.6245      624.37852     -149.55601      9.5502606    
   5865000   306.48493     -2130.449       600.83546     -159.25347      25.465126    
   5870000   313.74689     -2108.5121      578.31483     -127.36745      6.0001228    
   5875000   287.31872     -2136.2973      610.40569     -241.22776      4.2465402    
   5880000   304.37368     -2119.1951      589.65142     -168.62354      1.7678296    
   5885000   300.34592     -2121.9226      628.05046     -150.96089     -11.279044    
   5890000   304.96857     -2133.252       622.76494     -146.90697      6.4170635    
   5895000   294.08597     -2126.3403      634.28125     -177.13746     -4.0475879    
   5900000   304.95191     -2119.6293      612.62541     -143.4983       1.1744118    
   5905000   299.17475     -2115.9759      611.50822     -166.79308      1.0763108    
   5910000   308.89567     -2107.6666      616.82327     -109.70434     -1.2255651    
   5915000   302.95693     -2105.567       624.32808     -126.65332      8.5844774    
   5920000   297.42213     -2122.9474      616.5682      -176.5409      -3.8122984    
   5925000   302.53127     -2118.9833      596.24034     -170.06065     -0.060915601  
   5930000   285.04006     -2125.8639      625.11191     -226.27657     -5.9539649    
   5935000   304.1195      -2114.1194      619.96904     -134.36668      10.175263    
   5940000   302.4205      -2132.6313      612.19856     -168.24567      6.0594857    
   5945000   290.2621      -2152.6576      602.13821     -252.69513      15.190764    
   5950000   298.32277     -2159.5262      615.3082      -210.35268     -3.3283842    
   5955000   310.65796     -2169.1533      621.83649     -158.29821      4.5215324    
   5960000   296.13251     -2165.0525      606.24807     -234.73224      8.7138603    
   5965000   293.10159     -2148.9417      582.18622     -256.23525      4.1499915    
   5970000   306.06123     -2139.3708      625.34394     -145.56126     -5.3329327    
   5975000   298.98865     -2162.833       629.44478     -196.54563      4.4590206    
   5980000   303.85916     -2146.8501      609.47125     -178.75919      2.2368533    
   5985000   316.2011      -2179.9507      591.41401     -174.73356      8.925651     
   5990000   300.15744     -2161.3459      623.65239     -195.62499     -3.4340143    
   5995000   299.84585     -2168.4214      577.07534     -250.67077      0.31400245   
   6000000   301.3337      -2161.0276      600.50093     -213.19895     -12.734833    
   6005000   297.67025     -2142.3976      590.64143     -220.80847      0.54520104   
   6010000   303.23999     -2193.9041      591.41099     -246.64187      18.395887    
   6015000   295.55838     -2148.539       623.38059     -203.6533      -15.076274    
   6020000   302.9019      -2164.0219      600.40513     -209.27722      10.527103    
   6025000   293.05783     -2173.5145      597.77292     -265.41702     -2.1324328    
   6030000   297.15132     -2165.135       610.7789      -225.72864      5.6890002    
   6035000   307.57832     -2160.4315      574.40027     -210.78237      9.2097134    
   6040000   306.90509     -2160.5663      597.67838     -190.64929     -8.4492078    
   6045000   306.19477     -2164.4433      619.56005     -175.82053     -23.040582    
   6050000   295.82584     -2142.5374      645.28132     -174.55515      10.164736    
   6055000   298.8462      -2174.2196      614.18135     -223.83258     -5.1908357    
   6060000   296.12232     -2182.768       624.28134     -234.46004     -9.3603133    
   6065000   299.82387     -2154.8181      596.73741     -217.50372      11.185153    
   6070000   300.5115      -2176.9132      636.3673      -196.8944       14.046032    
   6075000   300.92409     -2171.4531      614.57487     -211.38194      2.6003389    
   6080000   304.29085     -2171.3975      601.52448     -209.32317      4.1337488    
   6085000   307.8821      -2156.965       597.3342      -183.02371     -0.46078338   
   6090000   310.39121     -2161.9703      589.5422      -184.60227      5.1240707    
   6095000   307.32575     -2148.1353      629.20097     -144.81476      0.50652495   
   6100000   310.39222     -2151.3148      648.96321     -114.5212       18.364188    
   6105000   284.65502     -2184.6928      606.66643     -305.27257      5.3561269    
   6110000   305.78463     -2154.0959      604.037       -182.83009      2.7377717    
   6115000   305.10156     -2170.7701      617.98411     -188.61129     -9.6709678    
   6120000   302.61049     -2166.4267      610.64984     -202.74032     -22.892818    
   6125000   297.17495     -2194.9307      640.50261     -225.69494      10.075358    
   6130000   299.92926     -2184.655       566.76233     -276.84444      1.2384929    
   6135000   312.81455     -2187.8617      641.88058     -147.31995      16.505809    
   6140000   303.75627     -2180.9098      592.93951     -229.81068      0.69840489   
   6145000   286.37502     -2160.9878      593.00127     -287.54224     -24.892861    
   6150000   303.24713     -2170.3004      608.93933     -205.47792      15.126219    
   6155000   318.32279     -2141.9252      629.97453     -88.661036     -3.4915448    
   6160000   310.10832     -2184.4863      590.49563     -207.42968     -3.8266043    
   6165000   299.70232     -2149.8862      602.48315     -207.36946     -3.6504465    
   6170000   300.1001      -2143.2774      628.84511     -172.62021      7.7934555    
   6175000   290.4222      -2179.0464      590.44011     -290.06614      14.069178    
   6180000   286.47758     -2171.1445      620.90915     -269.33245      2.7250375    
   6185000   297.82308     -2143.1951      614.793       -196.771       -15.011045    
   6190000   294.13296     -2157.5999      605.22723     -237.24093     -10.171909    
   6195000   287.51899     -2130.6962      633.94842     -211.18858     -9.4891707    
   6200000   294.51819     -2135.523       609.68319     -208.98569     -5.6704354    
   6205000   297.94079     -2148.233       648.02215     -168.05356      5.1793317    
   6210000   294.9287      -2136.1511      613.50762     -203.95389      18.401132    
   6215000   289.39771     -2122.9261      596.32954     -232.63719      8.6084338    
   6220000   285.16568     -2131.573       625.06721     -231.46874      8.1287091    
   6225000   300.56299     -2130.9001      625.84884     -161.16946      6.0710725    
   6230000   305.53724     -2107.4849      633.24968     -108.1125      -7.2167723    
   6235000   294.09983     -2131.9317      604.11524     -212.83284     -21.568439    
   6240000   307.54039     -2106.0996      633.84392     -97.176506      4.0409917    
   6245000   310.39328     -2132.0267      580.07387     -164.11773      3.7218638    
   6250000   290.60165     -2099.1502      612.7674      -187.04031      6.9976975    
   6255000   301.54816     -2109.1319      630.07019     -130.77505     -22.350418    
   6260000   298.44838     -2092.1427      624.16566     -133.5501       19.649029    
   6265000   300.46377     -2101.1237      612.22318     -145.46238     -3.2420619    
   6270000   298.65766     -2147.7791      598.58134     -213.83516      23.579559    
   6275000   293.47824     -2133.2133      631.40899     -189.59995      0.16126219   
   6280000   306.58005     -2107.5394      653.3126      -83.44148       7.1688162    
   6285000   297.60079     -2094.9671      610.58487     -153.74506     -11.786786    
   6290000   300.92946     -2114.8065      609.43942     -159.84677      9.595559     
   6295000   309.13683     -2139.477       629.108       -128.15174      13.350207    
   6300000   303.15163     -2128.3643      648.549       -124.35918      3.0772578    
   6305000   286.87199     -2133.4181      612.89983     -237.85194      20.604169    
   6310000   303.31351     -2133.4938      581.55161     -195.76227      10.5583      
   6315000   299.2402      -2146.5228      605.32191     -203.23362     -0.54140605   
   6320000   302.56914     -2131.6467      598.77952     -180.01552      34.779972    
   6325000   294.06398     -2123.6148      610.16407     -198.62745     -4.1339602    
   6330000   300.63524     -2136.6391      585.32506     -207.10918      1.7996837    
   6335000   298.17245     -2112.265       612.29807     -166.7738      -14.693413    
   6340000   308.4044      -2123.6597      601.96569     -142.75159      8.8680032    
   6345000   300.47895     -2121.7838      629.29251     -148.98531     -0.458891     
   6350000   299.91909     -2135.5664      602.69515     -191.8685       17.27958     
   6355000   301.0534      -2128.9762      595.1054      -187.79634      12.690396    
   6360000   295.82025     -2108.9167      595.85376     -190.38698      0.92061351   
   6365000   301.08622     -2123.1563      605.27492     -171.6602      -13.817326    
   6370000   309.38099     -2120.1094      570.56058     -166.23989     -3.5508252    
   6375000   304.2385      -2110.1686      608.51732     -141.33549     -0.78916722   
   6380000   297.14253     -2131.0633      633.08188     -169.39325     -14.177989    
   6385000   311.42811     -2101.868       625.97777     -83.428163      16.016996    
   6390000   306.46028     -2100.3053      617.72427     -112.33123      4.585851     
   6395000   292.62535     -2146.1096      613.0108      -224.70792     -0.03628881   
   6400000   294.62618     -2144.3656      605.43736     -221.59126     -18.773447    
   6405000   295.51713     -2141.5001      605.28338     -214.8961       2.4738584    
   6410000   297.49781     -2174.2341      611.50011     -232.55726     -0.95246484   
   6415000   304.59093     -2160.0703      604.91813     -193.26061     -17.941588    
   6420000   299.07526     -2180.3632      619.06792     -224.06549     -12.118691    
   6425000   307.02516     -2184.0013      649.05959     -162.1662       13.636726    
   6430000   299.33648     -2173.379       608.11643     -226.86483     -0.36797337   
   6435000   292.37024     -2177.9214      581.11484     -289.55634     -6.7562902    
   6440000   311.1606      -2158.7168      627.35981     -140.09104      0.40610969   
   6445000   293.52252     -2166.9385      637.69726     -216.8389      -5.5408018    
   6450000   294.29388     -2160.6094      580.97742     -263.7807      -6.4657988    
   6455000   298.86509     -2152.5068      631.24486     -184.97187      5.8679741    
   6460000   292.64165     -2152.9652      610.07863     -234.42281      4.4589668    
   6465000   291.65369     -2121.4959      638.43503     -179.0145       1.3967681    
   6470000   303.84589     -2148.3526      625.40365     -164.38859      16.150915    
   6475000   308.8947      -2131.9505      633.13548     -117.68042      6.6867049    
   6480000   281.32704     -2131.2015      628.18123     -245.14661     -10.000723    
   6485000   294.37387     -2121.4735      612.12571     -193.1389       8.6488192    
   6490000   293.55758     -2127.2525      607.73736     -206.95609     -26.205074    
   6495000   299.03834     -2121.4893      616.05959     -168.36497     -11.3951      
   6500000   287.72222     -2131.5592      617.58897     -227.50233      6.732818     
   6505000   304.99432     -2113.3966      606.95205     -142.74937     -7.0215562    
   6510000   298.91099     -2176.5927      621.11305     -218.98429      5.2297121    
   6515000   293.11361     -2178.2535      590.16536     -277.51413      2.1626199    
   6520000   293.74908     -2182.6736      585.21143     -284.04682     -1.3787733    
   6525000   316.18398     -2196.3963      623.55186     -159.11787      6.7104249    
   6530000   306.02959     -2202.2245      612.67938     -221.22095     -2.7208118    
   6535000   301.82063     -2192.8742      592.18337     -251.18592      1.3873464    
   6540000   312.2144      -2199.5027      612.24422     -191.28069      6.3188287    
   6545000   295.0877      -2193.5168      605.3185      -268.79774     -14.519738    
   6550000   300.05377     -2170.5269      595.27894     -233.64301     -6.6241102    
   6555000   308.04947     -2204.9427      649.31514     -178.27211     -4.8864558    
   6560000   300.83393     -2177.0544      588.93627     -243.02491      5.4072728    
   6565000   302.93317     -2186.7826      620.03198     -212.27129      25.9612      
   6570000   302.24596     -2171.324       616.07067     -203.84662     -1.4104713    
   6575000   296.8713      -2203.1759      611.5426      -264.25783     -7.2267972    
   6580000   308.43606     -2198.6053      629.10606     -190.41527     -0.28058505   
   6585000   296.90478     -2187.4162      588.71561     -271.1754      -8.6399613    
   6590000   297.40312     -2207.3643      605.1164      -272.49456      5.2798791    
   6595000   306.8084      -2173.4992      602.11837     -199.5745      -1.5902086    
   6600000   300.79752     -2218.4921      621.26593     -252.2958      -11.788914    
   6605000   298.76656     -2186.9321      600.46077     -250.62182     -23.447003    
   6610000   301.06488     -2205.5746      598.53485     -260.91388     -18.626032    
   6615000   307.0963      -2197.1791      570.34668     -253.73876     -26.142522    
   6620000   299.45991     -2164.8772      638.80967     -187.11789     -20.704677    
   6625000   315.67517     -2159.9737      591.60074     -156.92141     -10.558657    
   6630000   284.27734     -2175.5385      596.83216     -307.64118      15.24873     
   6635000   296.49979     -2184.929       600.05445     -259.1602      -19.011791    
   6640000   292.32879     -2189.3314      603.75476     -278.51175      10.910942    
   6645000   293.81551     -2178.7529      586.83153     -278.20904     -0.80926875   
   6650000   298.88208     -2177.2684      572.46112     -268.4412       10.391902    
   6655000   300.17283     -2171.1119      595.9732      -233.00146     -17.371258    
   6660000   291.49954     -2152.2848      629.99066     -218.93707     -15.67456     
   6665000   298.79331     -2160.5077      584.28595     -240.25259      1.552938     
   6670000   302.30963     -2164.3258      625.40518     -187.22927      10.758979    
   6675000   307.08234     -2184.8562      614.41297     -197.4121      -8.4960587    
   6680000   306.94492     -2174.7737      584.63885     -217.71812      12.679317    
   6685000   306.88907     -2175.2911      627.13132     -175.9927       12.024585    
   6690000   303.05816     -2159.0799      631.14063     -172.90105      25.998533    
   6695000   284.66576     -2166.9938      575.9469      -318.24503      9.0119799    
   6700000   297.31312     -2183.4796      640.56338     -213.5653      -11.047154    
   6705000   304.31491     -2142.648       594.26895     -187.72169      14.793844    
   6710000   294.60061     -2155.5361      621.08585     -217.22755     -0.30155998   
   6715000   302.03362     -2148.3843      589.44392     -208.48307      10.859136    
   6720000   289.53505     -2193.3609      628.6603      -270.12713      9.3632357    
   6725000   295.41339     -2200.0613      609.26124     -269.94322      24.139253    
   6730000   306.40259     -2154.4244      609.98674     -174.44574      16.114246    
   6735000   306.14496     -2172.2109      585.57485     -217.79606      3.0436999    
   6740000   292.67927     -2161.6172      603.2417      -249.74351      13.887609    
   6745000   303.56876     -2190.1802      627.74881     -205.11018      3.5897016    
   6750000   306.23647     -2178.6631      581.05285     -228.36115     -7.9296475    
   6755000   311.49192     -2186.8239      592.79675     -201.27972      13.964153    
   6760000   300.78513     -2183.4036      580.54797     -257.98065      7.1855585    
   6765000   308.42708     -2158.904       557.43892     -222.42123      7.113162     
   6770000   305.44839     -2172.804       630.9246      -176.15396      5.3240067    
   6775000   302.47708     -2185.6146      614.1801      -218.99446     -6.2078195    
   6780000   309.47149     -2202.2955      610.44453     -208.13736     -9.0711349    
   6785000   304.32756     -2210.8313      624.6916      -225.42578     -10.249795    
   6790000   296.60762     -2203.754       581.23691     -296.32064      7.8928554    
   6795000   298.10843     -2212.7187      606.66862     -273.14322      5.0951483    
   6800000   290.54832     -2213.128       601.81002     -312.21398      4.9775517    
   6805000   297.77322     -2248.7337      604.84626     -312.47927      12.565762    
   6810000   298.3219      -2227.4223      621.11195     -272.449        0.035833398  
   6815000   303.24267     -2220.3781      624.59848     -239.91648     -29.111025    
   6820000   298.24466     -2218.0978      587.26212     -297.31966     -8.9428949    
   6825000   301.23899     -2219.3138      600.05755     -272.3519      -3.3716674    
   6830000   301.18488     -2189.5983      639.83233     -203.10355      11.533539    
   6835000   306.95886     -2207.8517      604.27936     -231.09327     -3.1067624    
   6840000   302.63663     -2213.7291      592.30642     -268.26917     -2.6445203    
   6845000   299.90643     -2220.8796      595.66376     -284.26969     -5.2119529    
   6850000   301.33185     -2229.3237      637.81812     -244.1861      -10.704937    
   6855000   307.49248     -2211.4466      597.8401      -238.74148      20.993895    
   6860000   291.59463     -2214.3071      616.67553     -293.84922     -4.9775925    
   6865000   289.24283     -2204.9065      627.63587     -284.00377      4.7752789    
   6870000   288.56193     -2223.066       577.38145     -355.4621      -27.384878    
   6875000   286.37973     -2203.1666      601.95953     -320.74174     -8.5556713    
   6880000   304.59782     -2173.087       600.94976     -210.21484     -0.16321881   
   6885000   305.68786     -2166.4113      575.21657     -224.39857      12.415962    
   6890000   303.3843      -2210.1301      624.64873     -228.98489      4.1094304    
   6895000   295.10077     -2168.9207      595.80363     -253.65803     -7.3819588    
   6900000   299.736       -2186.5279      621.0426      -225.30118      0.80780587   
   6905000   300.86359     -2177.7087      635.49892     -196.98396     -3.1334048    
   6910000   296.97446     -2217.8172      622.22348     -267.75705     -8.3565034    
   6915000   294.04506     -2209.5696      611.09218     -283.73869      20.982199    
   6920000   306.57906     -2215.6592      607.53267     -237.34564     -8.8754977    
   6925000   298.04707     -2222.9278      611.82015     -278.47505     -1.6353545    
   6930000   294.55569     -2184.7067      584.33697     -283.34784     -1.233269     
   6935000   292.53879     -2197.0736      582.99345     -306.07632     -7.2606098    
   6940000   305.27036     -2174.8988      622.58073     -187.38859      0.14726602   
   6945000   310.15929     -2190.8218      626.50156     -177.53138      22.251208    
   6950000   304.08731     -2165.074       641.72874     -163.70546     -8.6313024    
   6955000   300.25355     -2186.996       637.40707     -207.09071     -6.1113902    
   6960000   296.63773     -2186.7762      611.97677     -248.46829      23.431017    
   6965000   302.85358     -2175.1148      609.09917     -211.89212      0.31965714   
   6970000   299.09091     -2191.3758      588.35593     -265.72007     -8.8642977    
   6975000   298.76477     -2141.9385      633.33958     -172.75741     -4.2733341    
   6980000   297.83636     -2133.5393      615.78065     -186.06819      0.1383322    
   6985000   305.02586     -2137.0182      613.1308      -160.05118     -2.7774957    
   6990000   308.88496     -2104.7947      605.55543     -118.1482       14.617949    
   6995000   296.82156     -2124.6287      619.24729     -178.22842     -7.9241852    
   7000000   298.31867     -2138.2449      578.92368     -225.47427      0.28335725   
   7005000   286.45311     -2139.1238      575.03683     -283.29348     -5.2948773    
   7010000   304.71958     -2157.526       577.80825     -217.25099      8.5724698    
   7015000   293.4624      -2134.8334      654.41322     -168.28666     -2.8157443    
   7020000   297.06123     -2120.312       609.19733     -182.89         3.3169977    
   7025000   302.84652     -2147.2065      583.94752     -209.16703      24.412694    
   7030000   302.26156     -2144.59        632.01726     -161.09629      0.37747628   
   7035000   302.4611      -2146.2828      599.7815      -194.13268     -15.731267    
   7040000   298.73904     -2151.8179      630.39071     -185.70071      1.3083059    
   7045000   303.88104     -2155.7025      600.26092     -196.72413     -14.003656    
   7050000   300.07933     -2177.2283      618.74889     -216.76021     -2.4198538    
   7055000   291.18195     -2143.1938      598.99131     -242.26532     -20.103375    
   7060000   290.09245     -2160.5772      598.15314     -265.35832      5.8643124    
   7065000   300.16634     -2154.2941      593.58486     -218.60099     -5.4296122    
   7070000   294.44345     -2126.837       608.89227     -201.42469     -16.829004    
   7075000   293.09349     -2141.506       588.2256      -242.79634      20.542611    
   7080000   314.31972     -2133.5399      613.78288     -114.36596     -3.6481618    
   7085000   293.56717     -2164.7641      628.52489     -223.63726     -12.759562    
   7090000   297.65451     -2135.5316      610.53533     -194.11893      4.5159991    
   7095000   295.7815      -2156.929       609.90789     -224.51839     -1.4114794    
   7100000   302.85834     -2128.0788      581.52409     -192.40995     -14.227749    
   7105000   294.52459     -2106.6697      623.76096     -166.02597     -13.056157    
   7110000   288.52366     -2130.8173      626.08923     -214.67676     -20.953862    
   7115000   307.45306     -2104.1012      640.47213     -88.940279      2.3603549    
   7120000   303.59957     -2135.8591      593.13604     -185.26406     -7.4519862    
   7125000   294.28662     -2120.7579      619.52808     -185.41108      13.180334    
   7130000   303.52627     -2102.7879      613.57393     -132.08276     -2.0293622    
   7135000   296.03142     -2092.8979      623.0213      -146.25643     -15.526239    
   7140000   299.92128     -2086.4779      584.72334     -160.74198     -0.92069174   
   7145000   302.05912     -2085.6199      617.05409     -117.99449     -14.386135    
   7150000   301.97035     -2077.9818      631.48066     -96.326747     -9.3359846    
   7155000   306.18307     -2063.3535      618.85794     -75.485228     -11.871167    
   7160000   304.70059     -2058.6499      612.03183     -84.23623      -7.4023788    
   7165000   307.44643     -2081.039       605.85469     -100.52519      10.095361    
   7170000   295.23786     -2048.0678      619.115       -108.88083      3.5985475    
   7175000   308.64755     -2054.3271      624.74111     -49.556436      15.715607    
   7180000   296.86855     -2044.3608      630.09196     -86.905676      5.6437064    
   7185000   297.03063     -2047.6175      629.3514      -90.178289     -3.5079373    
   7190000   304.12607     -2077.845       604.57608     -113.45588     -22.569087    
   7195000   295.92546     -2051.1121      580.72166     -147.24405      4.5549736    
   7200000   302.25921     -2057.9573      623.57654     -82.914765      16.8877      
   7205000   298.77718     -2037.9726      592.07255     -110.00298     -26.549909    
   7210000   305.69072     -2060.0997      601.99707     -91.293671      11.94325     
   7215000   300.79417     -2082.0996      606.7306      -130.45351      16.90589     
   7220000   300.35336     -2067.3861      604.54088     -119.90076      1.5532053    
   7225000   292.36432     -2047.0629      603.96827     -135.87088     -0.099905375  
   7230000   290.92642     -2055.2927      613.86522     -140.63291     -15.793735    
   7235000   308.2189      -2064.4858      611.29804     -75.074752     -13.184839    
   7240000   288.37143     -2065.9299      609.60138     -166.9578      -6.194553     
   7245000   313.32045     -2076.1497      620.42757     -54.798971      23.191255    
   7250000   306.34967     -2096.3066      592.99955     -133.55174     -1.6053912    
   7255000   293.50755     -2100.3116      625.02133     -162.95489      9.5840564    
   7260000   299.66046     -2112.5117      608.97754     -163.68781      9.9824333    
   7265000   299.38724     -2105.2043      600.67722     -165.90233     -5.959182     
   7270000   315.2521      -2119.776       631.78772     -78.428341      3.0386689    
   7275000   300.72047     -2114.9743      601.16848     -169.21989      12.156343    
   7280000   295.16772     -2107.3901      634.0002      -153.63147     -5.0854694    
   7285000   295.20405     -2094.4705      608.02112     -166.52855     -7.0572855    
   7290000   301.13927     -2084.1397      607.16768     -130.51355     -1.8286541    
   7295000   309.50159     -2121.5946      619.77594     -117.97044      8.4053755    
   7300000   295.56181     -2134.2836      584.37227     -228.39094     -6.2481582    
   7305000   309.06778     -2117.7037      605.58947     -130.2057      -21.7274      
   7310000   303.84249     -2126.7593      613.659       -154.55513     -3.9742717    
   7315000   298.62817     -2120.2323      594.40573     -190.5958       11.046433    
   7320000   294.41423     -2115.9722      623.8464      -175.73644      2.5203422    
   7325000   297.31863     -2095.0743      616.93864     -148.76009      15.127461    
   7330000   299.91242     -2108.0577      579.03605     -188.0487       14.577241    
   7335000   308.05751     -2114.2458      582.42337     -154.43106      15.187837    
   7340000   303.84865     -2120.2093      625.91753     -135.71907      3.2787065    
   7345000   299.13253     -2108.7588      601.28839     -169.98454     -17.601315    
   7350000   296.78636     -2108.6962      613.84182     -167.85874     -14.293782    
   7355000   302.58451     -2130.4822      623.07814     -154.48365      1.677387     
   7360000   299.52002     -2121.3463      650.26946     -131.85842     -3.1861859    
   7365000   308.33997     -2094.1747      619.95864     -95.561757     -6.5115762    
   7370000   306.47549     -2101.8912      647.78523     -83.788124     -13.117914    
   7375000   309.29472     -2108.2534      603.57455     -121.75561      12.440221    
   7380000   310.28411     -2115.8046      594.69205     -133.76551     -2.7069652    
   7385000   302.18123     -2105.416       602.19197     -152.1067      -0.36684465   
   7390000   308.11743     -2083.2339      607.69389     -97.880679      4.127216     
   7395000   288.87557     -2089.5756      631.381       -166.56979     -8.5685615    
   7400000   293.84114     -2114.612       614.46655     -186.31855      27.041957    
   7405000   289.98677     -2095.3284      619.8522      -178.88304     -10.147247    
   7410000   296.70988     -2112.2226      614.95151     -170.61736     -2.3857953    
   7415000   297.74287     -2097.4432      591.76538     -174.40546      6.3959835    
   7420000   292.01448     -2101.0112      578.35959     -216.992        5.3639964    
   7425000   296.68812     -2116.4019      634.83869     -155.00684     -7.393039     
   7430000   298.19571     -2114.3816      625.6653      -155.41912     -7.2584185    
   7435000   304.7125      -2115.3262      597.46022     -155.43086     -18.3877      
   7440000   291.2343      -2093.0097      648.12786     -142.71061     -4.4911095    
   7445000   295.93184     -2120.4955      592.69469     -204.62592     -9.6793026    
   7450000   316.75827     -2138.4672      616.62616     -105.54672     -22.641913    
   7455000   307.94024     -2124.7322      592.8943      -154.97084      14.535422    
   7460000   304.98745     -2130.7711      622.69996     -144.40671      12.779125    
   7465000   298.48876     -2134.0587      627.6566      -171.79467      6.2430942    
   7470000   297.89389     -2131.2279      598.24525     -201.03496      13.282939    
   7475000   309.68375     -2145.9339      629.82307     -131.44816      4.5753598    
   7480000   298.97105     -2146.0367      638.17355     -171.09927      3.1477184    
   7485000   299.52637     -2135.0494      637.00234     -158.80022      11.797512    
   7490000   304.6007      -2135.5359      637.66605     -135.93462      9.8879104    
   7495000   293.18882     -2154.9647      623.19122     -220.86323      1.3906715    
   7500000   298.1325      -2143.6304      584.42902     -226.18684      0.87319102   
   7505000   306.49154     -2129.8619      642.35056     -117.12181      15.377346    
   7510000   302.54515     -2130.9511      567.38865     -210.81801      2.3402049    
   7515000   304.35272     -2113.8195      613.48624     -139.5068       3.3082237    
   7520000   298.25801     -2091.1773      621.0276      -136.57397      1.7375981    
   7525000   293.44275     -2113.4092      593.67746     -207.68607      16.736151    
   7530000   289.6734      -2112.5261      630.51791     -186.81612     -13.432994    
   7535000   300.124       -2119.659       590.77854     -186.96149      19.579962    
   7540000   297.96462     -2125.3058      627.33889     -165.70303      9.3087066    
   7545000   295.95938     -2122.556       594.71798     -204.53994     -1.8788458    
   7550000   293.26229     -2122.9194      632.83228     -178.84837      0.71064536   
   7555000   291.05001     -2132.1015      621.32023     -209.43412      12.863107    
   7560000   294.64247     -2148.4776      611.43975     -219.62806     -7.7575708    
   7565000   299.37797     -2093.0378      627.09992     -127.3546       10.8627      
   7570000   299.36334     -2120.6347      600.16537     -181.95146      5.4070342    
   7575000   285.76218     -2106.388       632.06101     -196.62283     -4.3939214    
   7580000   295.96319     -2107.1462      609.53991     -174.29117      2.7736274    
   7585000   311.12187     -2132.0296      600.61738     -140.31946     -8.9264512    
   7590000   303.07885     -2126.5156      623.8689      -147.51593     -2.554203     
   7595000   289.19111     -2103.4596      617.08453     -193.33945      10.559601    
   7600000   301.05817     -2110.0421      618.55416     -145.39211     -7.8582003    
   7605000   295.94118     -2119.7184      620.79303     -175.70873      13.261985    
   7610000   292.52526     -2105.2169      599.75043     -197.52315      20.622861    
   7615000   300.20234     -2098.7429      625.30836     -131.1653       15.566213    
   7620000   286.47598     -2140.9005      602.1171      -257.88767     -15.467442    
   7625000   311.5646      -2108.9729      626.47607     -89.424523     -2.424694     
   7630000   302.50067     -2112.2914      635.40241     -124.34341     -8.3981041    
   7635000   298.99259     -2113.0025      618.52514     -157.61722      0.62999334   
   7640000   292.9375      -2128.8148      630.36796     -188.66021     -28.240467    
   7645000   289.10837     -2103.4352      604.84488     -205.92456     -8.0587402    
   7650000   289.86088     -2108.8568      613.47145     -199.355        13.024221    
   7655000   289.6731      -2096.2673      595.30084     -205.77578     -3.5683867    
   7660000   292.9391      -2102.6265      612.0424      -180.79044     -2.9998207    
   7665000   304.67613     -2086.0758      605.20495     -118.59837     -1.8570174    
   7670000   303.39183     -2088.6342      594.33692     -137.7672       6.0364164    
   7675000   314.47991     -2088.6669      648.60351     -33.956079      14.720427    
   7680000   295.00055     -2095.3223      592.85823     -183.45317     -27.498426    
   7685000   311.81486     -2085.4994      620.68189     -70.626253     -10.853937    
   7690000   292.47569     -2087.3324      615.34105     -164.26963      9.6971457    
   7695000   291.0383      -2078.2759      626.58739     -150.39367      8.2031563    
   7700000   293.9196      -2090.283       636.05175     -140.05354     -5.3165847    
   7705000   300.20774     -2081.2142      618.21739     -120.70337     -1.6573241    
   7710000   303.63887     -2101.0485      619.73235     -123.68143     -2.0035601    
   7715000   300.14116     -2112.6112      610.28218     -160.33328      12.490045    
   7720000   296.31178     -2102.139       622.53189     -154.73334     -16.552753    
   7725000   296.18274     -2081.5036      612.35309     -144.85377     -7.9805765    
   7730000   291.1695      -2077.268       623.52637     -151.86016      9.0809828    
   7735000   293.21349     -2103.0391      588.35598     -203.66256      18.244018    
   7740000   308.13202     -2088.5255      603.82855     -106.97237     -6.8881848    
   7745000   300.80191     -2092.5386      630.22538     -117.36314     -24.012069    
   7750000   297.87061     -2103.9172      616.25977     -155.81387     -2.045239     
   7755000   291.56983     -2086.0435      593.24174     -189.13034     -17.180454    
   7760000   294.48865     -2091.6149      634.14521     -140.74762      23.689443    
   7765000   300.38459     -2093.9693      598.73841     -152.14683     -10.187615    
   7770000   295.72204     -2082.1129      616.36847     -143.50757      11.010022    
   7775000   308.97855     -2082.6874      613.8172      -87.36068      -5.1429907    
   7780000   285.73229     -2054.9746      624.33565     -153.06841     -8.3101833    
   7785000   305.15087     -2077.8704      585.09795     -128.37732     -1.3968547    
   7790000   301.60136     -2061.7132      604.10568     -109.08294      14.443293    
   7795000   299.07334     -2098.9753      624.16888     -137.58524      13.687171    
   7800000   292.56141     -2107.5034      643.19412     -156.20431     -0.18616549   
   7805000   295.03821     -2107.3356      580.67558     -207.48075     -6.6362418    
   7810000   308.50148     -2100.6345      601.42304     -119.83498      0.037191873  
   7815000   296.69745     -2115.7889      610.14512     -179.04571      7.4386074    
   7820000   300.82186     -2106.4916      619.53343     -141.91895      6.3667006    
   7825000   294.54575     -2094.1656      587.46317     -189.72499      12.97326     
   7830000   304.67764     -2087.0104      628.77201     -95.95914       6.7309518    
   7835000   309.02577     -2092.0428      630.54327     -79.778912      0.80025655   
   7840000   303.73342     -2085.6232      614.15811     -113.40759     -6.1672007    
   7845000   291.65004     -2079.3631      606.97872     -168.3543       14.658369    
   7850000   304.81737     -2092.9151      585.19536     -144.81574     -7.2974829    
   7855000   308.31262     -2092.825       610.99937     -103.29357      2.4030403    
   7860000   298.79455     -2103.6214      640.39374     -127.25292      2.0893547    
   7865000   303.2778      -2107.4352      623.73813     -127.67678     -2.5360336    
   7870000   297.18732     -2107.4094      624.07598     -154.54495     -5.786051     
   7875000   297.6621      -2088.6046      607.25741     -150.43595      18.529154    
   7880000   301.98894     -2082.1101      613.84373     -118.00882      15.879627    
   7885000   297.57214     -2073.1923      594.28943     -148.39389      7.5711912    
   7890000   303.78897     -2093.1015      596.45289     -138.34278      4.0836649    
   7895000   289.19152     -2087.7296      637.93825     -156.75382     -3.1908991    
   7900000   299.16708     -2094.5562      622.96839     -133.94743      6.6013854    
   7905000   300.46183     -2088.1312      632.18643     -112.51531     -21.043228    
   7910000   296.70106     -2097.3842      623.04495     -147.72502      7.3882169    
   7915000   303.14013     -2108.9474      576.67124     -176.87142      10.591183    
   7920000   301.12739     -2084.882       598.45209     -140.02459      16.118987    
   7925000   299.05701     -2071.1956      643.94355     -90.103815     -20.018684    
   7930000   301.58143     -2097.0256      650.30796     -98.282149      1.4332273    
   7935000   287.23        -2093.9315      618.95957     -190.70483     -4.488055     
   7940000   298.12118     -2114.6413      631.64745     -150.02998      4.1502709    
   7945000   308.57625     -2095.6337      605.68869     -110.23418     -4.0361833    
   7950000   291.06267     -2053.8829      616.9355      -135.54362      21.51677     
   7955000   309.09339     -2091.7896      609.8398      -99.926753      9.5997349    
   7960000   310.76935     -2049.6321      611.00153     -49.113923      4.8680827    
   7965000   302.05711     -2052.9316      574.33383     -128.03548     -11.404398    
   7970000   297.92834     -2079.0325      614.47295     -132.45789      13.123558    
   7975000   297.77265     -2062.0163      609.32118     -121.2896       18.82778     
   7980000   297.3701      -2075.1434      624.00718     -121.53059     -5.1370808    
   7985000   306.74067     -2083.3839      591.40526     -120.4751      -14.834779    
   7990000   299.70039     -2079.097       625.07811     -113.99396      9.0820636    
   7995000   302.3108      -2071.3615      640.75096     -78.913912      17.956228    
   8000000   289.06189     -2078.0301      598.9257      -186.64653     -4.8594829    
   8005000   307.25745     -2074.5605      617.51582     -83.230524      20.380653    
   8010000   304.03204     -2082.1414      611.31546     -111.43325     -6.5129733    
   8015000   304.95369     -2060.1693      585.38489     -111.27084     -11.014439    
   8020000   299.73411     -2073.9402      619.15254     -114.612       -2.008515     
   8025000   295.74118     -2078.7886      637.79124     -118.67491     -10.06792     
   8030000   286.45496     -2083.3873      619.4383      -183.14726      31.061523    
   8035000   294.75518     -2077.8682      603.12363     -156.8308      -11.754663    
   8040000   293.66163     -2079.8888      631.54295     -135.32159      25.837135    
   8045000   295.08421     -2095.0856      614.2566      -161.44407      2.9447616    
   8050000   287.00715     -2086.2794      616.14866     -186.86008     -6.3407431    
   8055000   300.625       -2105.4622      625.07532     -136.22786     -4.9665913    
   8060000   301.21492     -2089.6309      661.51665     -81.317536      0.70100317   
   8065000   297.70263     -2086.3487      659.23963     -96.016597     -0.462014     
   8070000   299.65797     -2094.1487      616.89747     -137.416        14.369286    
   8075000   299.18744     -2090.0413      621.04932     -131.26054     -2.9978923    
   8080000   300.71116     -2091.1608      624.49207     -122.12449      8.0585984    
   8085000   291.271       -2082.3258      599.7037      -180.28687     -6.1752357    
   8090000   308.92305     -2088.2757      569.18058     -137.83373      0.61771571   
   8095000   302.19235     -2109.0329      629.41302     -128.45286     -0.82393014   
   8100000   309.27831     -2082.7232      609.84393     -90.029404      14.423569    
   8105000   289.76392     -2073.5347      625.19725     -152.74065     -1.9197559    
   8110000   308.75433     -2108.9871      593.50992     -134.97018     -10.82529     
   8115000   301.89254     -2133.7829      634.31128     -149.64515     -11.644682    
   8120000   297.08308     -2124.7361      603.15436     -193.25937      6.9048811    
   8125000   298.11915     -2124.2808      583.00435     -208.32156      5.4460048    
   8130000   306.17815     -2101.8283      578.7095      -154.13046     -0.55382382   
   8135000   299.59852     -2114.8699      609.87467     -165.42581     -16.970606    
   8140000   297.33962     -2116.0075      603.07235     -183.46577      5.1550297    
   8145000   293.64808     -2105.7122      646.28836     -146.46014      13.431367    
   8150000   305.46148     -2093.5539      609.97285     -117.7971      -9.4174636    
   8155000   304.09568     -2097.1845      615.0309      -122.47644      14.611264    
   8160000   300.60538     -2086.6826      605.12802     -137.48328     -5.2560204    
   8165000   299.10944     -2082.1217      615.56548     -129.17355      0.017825587  
   8170000   291.70994     -2074.9844      618.54663     -152.13982      19.161183    
   8175000   287.71036     -2085.5671      597.83424     -201.31797      18.761012    
   8180000   313.64946     -2096.4585      610.74579     -83.318493      10.017701    
   8185000   300.42505     -2087.5343      620.23282     -124.03652     -0.64127035   
   8190000   295.72107     -2109.3391      637.37014     -149.73642      6.8520835    
   8195000   294.39114     -2108.395       601.89311     -190.21577     -1.7926529    
   8200000   296.53294     -2089.4993      619.83488     -143.80184      35.169567    
   8205000   287.98516     -2089.0177      614.70224     -186.6719      -7.6108609    
   8210000   300.25003     -2048.8511      630.37313     -75.995461      15.974824    
   8215000   300.64679     -2064.9883      641.54632     -79.185512      0.64884418   
   8220000   303.21186     -2058.5057      611.11491     -91.665372      0.11539511   
   8225000   301.83353     -2041.0563      630.31775     -61.17592       8.7078688    
   8230000   296.55524     -2055.8966      640.50472     -89.429607      8.4201405    
   8235000   294.9669      -2066.6983      614.12333     -133.71454     -3.5214052    
   8240000   299.68064     -2065.3839      610.20919     -115.23813     -6.4055543    
   8245000   293.45745     -2074.7437      619.35475     -143.2776       4.067653     
   8250000   308.08826     -2052.4128      592.80283     -82.081078      11.291584    
   8255000   301.06318     -2062.3748      612.06544     -104.19113     -18.153023    
   8260000   295.11284     -2046.7884      621.87461     -105.40076     -0.43805272   
   8265000   297.82891     -2039.5413      580.4417      -127.4425       7.5520734    
   8270000   302.71529     -2061.7375      622.73401     -85.498332      16.49143     
   8275000   315.96191     -2051.3133      572.07368     -66.505931      9.0595996    
   8280000   297.98268     -2067.2023      618.18463     -116.67305     -3.673232     
   8285000   308.81943     -2088.2137      627.28511     -80.130559     -5.1816924    
   8290000   304.87744     -2075.0658      594.93284     -116.96042     -11.799214    
   8295000   301.20219     -2086.9052      600.85471     -139.31071      8.9548582    
   8300000   286.30134     -2060.8026      601.63404     -179.05374     -22.75797     
   8305000   300.51509     -2060.708       614.70506     -102.33528      0.79523554   
   8310000   314.2952      -2033.9285      606.46273     -22.184347     -8.652789     
   8315000   298.18259     -2053.1833      589.13534     -130.80949     -10.940766    
   8320000   301.02238     -2058.789       643.37374     -69.479452      16.072425    
   8325000   297.01833     -2077.2515      626.30219     -122.91647      3.9111092    
   8330000   303.09511     -2074.9557      612.23547     -107.51677     -20.762251    
   8335000   293.97338     -2085.548       567.45999     -203.66986     -15.983925    
   8340000   304.66305     -2088.3088      643.20466     -82.89011       19.321885    
   8345000   302.77177     -2069.4113      595.71762     -119.93596      18.061218    
   8350000   303.64724     -2077.5794      603.88551     -116.02177      3.921412     
   8355000   302.94665     -2059.9652      609.35438     -96.071126      3.2478184    
   8360000   291.52548     -2092.458       638.08056     -150.90428      5.24541      
   8365000   309.51927     -2108.229       612.67126     -111.63053      8.6241994    
   8370000   301.6506      -2085.4416      627.14385     -109.55307      9.8608351    
   8375000   302.64651     -2115.3384      609.48466     -152.65608      12.590314    
   8380000   291.13515     -2090.2626      602.1414      -186.39338      10.976114    
   8385000   293.99212     -2119.5534      627.39173     -177.65963     -12.315984    
   8390000   310.47358     -2135.9102      609.65448     -138.06153     -7.7784209    
   8395000   298.36356     -2138.8701      622.74055     -182.08188     -17.319991    
   8400000   289.9466      -2127.3462      624.05649     -206.87611     -11.178018    
   8405000   303.23273     -2129.9355      662.18542     -111.93137     -15.376784    
   8410000   291.75999     -2135.4057      605.08241     -225.80159      4.237372     
   8415000   315.15213     -2124.9468      612.71288     -103.12094      3.0443243    
   8420000   308.23538     -2124.3846      615.0688      -131.12911     -4.3562975    
   8425000   307.65011     -2122.3263      598.73889     -148.01763     -14.366128    
   8430000   303.35459     -2115.1668      632.23021     -126.57303     -5.8415016    
   8435000   295.91758     -2096.5605      603.78442     -169.66498      1.1621753    
   8440000   308.91617     -2099.8177      596.62303     -121.96402     -9.9808757    
   8445000   299.91455     -2095.1523      610.58202     -143.58785     -2.2311411    
   8450000   293.9721      -2082.3927      622.87251     -145.10773      6.6145958    
   8455000   294.12695     -2107.7132      608.03035     -184.578       -4.7009778    
   8460000   296.33001     -2070.2891      602.77571     -142.55816     -1.4255905    
   8465000   289.16714     -2090.605       622.99318     -174.68337      19.853984    
   8470000   300.4602      -2111.1646      632.51434     -135.2281      -2.2303611    
   8475000   291.26086     -2051.1492      628.59446     -120.2648       17.703375    
   8480000   302.18479     -2052.31        620.30671     -80.870083      10.410224    
   8485000   296.35063     -2057.9487      618.7301      -114.17122      7.2078238    
   8490000   309.10848     -2023.6858      632.9126      -8.6827161     -24.179332    
   8495000   300.03749     -2037.4428      639.78942     -56.121249     -11.238869    
   8500000   298.32632     -2046.3219      634.67602     -77.764767     -2.8407538    
   8505000   304.17867     -2060.0811      620.18816     -79.844727      15.968907    
   8510000   294.41146     -2078.9052      617.25734     -145.27092      6.0939493    
   8515000   300.1693      -2045.5908      608.83238     -94.636934      17.011056    
   8520000   299.50173     -2039.1629      630.2644      -69.761821     -8.8022937    
   8525000   300.71834     -2059.9819      588.39498     -127.01058      6.0892357    
   8530000   290.84488     -2076.6161      617.98908     -158.19703     -14.478355    
   8535000   299.15857     -2041.9328      585.42405     -118.90642      3.7889596    
   8540000   308.35248     -2057.803       622.25706     -56.835672      1.509735     
   8545000   295.48586     -2063.6094      608.03785     -134.39072      7.0794723    
   8550000   291.92972     -2052.3826      611.76467     -135.33737      9.3095092    
   8555000   305.04154     -2054.9047      593.11199     -97.886424     -3.3307206    
   8560000   291.06533     -2049.7873      598.75632     -149.6153      -17.665085    
   8565000   302.25231     -2058.8082      567.80935     -139.56375     -3.4819331    
   8570000   292.12026     -2067.3571      592.68335     -168.54121     -9.7451651    
   8575000   296.5463      -2065.509       618.66201     -120.92467      17.804615    
   8580000   306.75411     -2076.347       614.67931     -90.104064     -2.762197     
   8585000   292.12745     -2084.1373      595.31754     -182.65513     -15.405998    
   8590000   297.05478     -2079.5408      618.91568     -132.42935     -6.8221933    
   8595000   300.50137     -2104.425       599.27953     -161.53922     -3.3901023    
   8600000   306.68842     -2111.4261      643.27378     -96.882401     -9.1729583    
   8605000   306.51655     -2113.3105      585.21241     -157.59669      8.4947192    
   8610000   302.22991     -2082.7192      604.92553     -126.4587       8.3829415    
   8615000   293.30536     -2096.7847      604.01931     -181.33408      7.7629969    
   8620000   294.38146     -2109.0696      577.0781      -215.74868      8.1772504    
   8625000   304.96764     -2095.515       605.08359     -126.85548     -8.0879221    
   8630000   308.48288     -2117.299       579.5502      -158.45551     -21.957295    
   8635000   298.01449     -2105.1419      581.91506     -190.73992      1.3552062    
   8640000   289.46457     -2087.4841      595.3721      -197.85363      1.9282825    
   8645000   297.12772     -2121.7402      590.81398     -202.40428     -0.54088372   
   8650000   298.53104     -2083.8403      649.29354     -99.750247     -11.812509    
   8655000   299.50798     -2104.8858      602.83616     -162.88505      20.037057    
   8660000   301.66923     -2109.0418      606.28024     -153.9336       12.459652    
   8665000   293.73803     -2112.1824      614.65249     -184.16402     -11.860432    
   8670000   298.91555     -2123.4467      642.21377     -144.7172      -10.098637    
   8675000   305.29697     -2084.9866      603.06942     -116.86878     -20.56636     
   8680000   313.9023      -2120.0003      613.36336     -103.1123      -12.398438    
   8685000   291.17526     -2113.6529      626.13321     -185.61253     -3.4080845    
   8690000   281.20025     -2117.9126      612.71876     -247.88707     -1.7936303    
   8695000   309.27035     -2087.4815      622.52602     -82.141267      13.014194    
   8700000   296.28352     -2093.1121      586.41094     -181.95377      26.855388    
   8705000   290.51945     -2100.2878      589.41969     -211.89319     -9.1275387    
   8710000   297.24132     -2122.1484      577.73092     -215.3876       11.083222    
   8715000   306.62128     -2110.4862      602.87274     -136.64374      8.9860772    
   8720000   296.1352      -2126.1868      603.68904     -198.41358     -10.90807     
   8725000   300.36544     -2122.9116      619.49509     -160.41801     -13.875391    
   8730000   302.12563     -2121.4832      637.06437     -133.55013      13.399868    
   8735000   287.00735     -2145.7946      643.17395     -219.34906     -7.4924282    
   8740000   305.68926     -2149.6719      626.88086     -155.98858      15.311938    
   8745000   296.9798      -2150.6481      609.91376     -212.87378     -1.2642562    
   8750000   307.2853      -2140.9334      599.65655     -167.33817     -3.5876076    
   8755000   299.43649     -2126.6852      619.88806     -167.95215     -5.7884108    
   8760000   301.18602     -2127.4557      597.24454     -183.54372     -4.2238394    
   8765000   298.25739     -2126.4287      592.39269     -200.46312      23.352341    
   8770000   296.60841     -2105.627       606.84563     -172.58135     -4.7379687    
   8775000   287.10427     -2112.2185      613.46672     -215.04682     -4.2859355    
   8780000   294.65653     -2120.3025      585.02452     -217.80524     -4.8580264    
   8785000   305.89516     -2135.0162      603.49607     -163.79713     -15.798713    
   8790000   305.03207     -2124.7045      607.56519     -153.27537      5.0723746    
   8795000   311.2554      -2114.701       612.15449     -110.85664     -14.642748    
   8800000   298.51726     -2141.0683      634.90108     -171.43236      5.9312312    
   8805000   306.42937     -2121.7123      606.91975     -144.68092      7.3134858    
   8810000   293.15957     -2142.9848      590.82127     -241.38399      14.041193    
   8815000   295.55479     -2147.1532      600.32397     -225.3402       2.0207876    
   8820000   282.16609     -2130.1551      620.13726     -248.3926      -16.862408    
   8825000   301.33235     -2145.5875      587.25797     -211.00782     -0.61220722   
   8830000   303.33221     -2158.2698      615.74702     -186.25923     -8.3840338    
   8835000   292.55288     -2170.5378      631.20296     -231.26794      22.684897    
   8840000   303.29912     -2159.6367      629.49909     -174.02198      22.137855    
   8845000   300.8978      -2156.9576      636.19429     -175.38453      7.0113132    
   8850000   309.08576     -2169.58        602.82126     -184.7698      -5.9014801    
   8855000   306.05517     -2162.1425      592.57261     -201.13141      11.576872    
   8860000   302.39939     -2194.7756      629.27774     -213.4052      -1.3734108    
   8865000   303.4989      -2184.6831      590.05177     -237.62248      14.113786    
   8870000   305.46932     -2170.6254      580.04735     -224.75904     -6.2737978    
   8875000   308.76981     -2162.6411      600.19926     -181.86564      7.1182193    
   8880000   308.88518     -2157.2281      628.05019     -148.08586      1.0713027    
   8885000   288.92741     -2177.3572      601.2816      -284.21898     -4.0633936    
   8890000   299.63818     -2183.8707      635.09982     -209.02416      8.2051806    
   8895000   299.0446      -2182.7699      620.5761      -225.1011      -4.156451     
   8900000   296.79143     -2166.944       610.17001     -229.75571      13.53243     
   8905000   291.80278     -2189.7776      638.47287     -246.59173     -11.828922    
   8910000   294.79325     -2173.5681      593.99441     -261.48963     -0.8055036    
   8915000   295.69253     -2163.521       612.28807     -229.12809      2.6736683    
   8920000   299.04643     -2148.6471      596.27886     -215.26737     -16.366825    
   8925000   302.54033     -2155.3454      616.18268     -186.4398       2.2236841    
   8930000   300.58382     -2189.5047      589.46277     -256.06702     -19.908153    
   8935000   309.59955     -2182.3301      598.15133     -199.89256      13.094346    
   8940000   292.09967     -2166.1587      591.58127     -268.53695      1.3236809    
   8945000   297.77631     -2198.6932      636.20829     -231.06299     -14.944665    
   8950000   297.44173     -2222.2282      587.75331     -304.54895      19.361035    
   8955000   300.65822     -2216.6891      595.17177     -277.20974      16.413513    
   8960000   308.94772     -2246.3166      589.59944     -275.34543     -12.457077    
   8965000   299.36855     -2243.625       587.03253     -318.0513       11.593809    
   8970000   301.23024     -2212.7827      615.65699     -250.26047     -1.6679132    
   8975000   294.81414     -2231.4432      608.20434     -305.06148      12.910573    
   8980000   308.25774     -2221.7532      636.11551     -207.35101     -9.6737358    
   8985000   301.19359     -2234.9744      590.02346     -298.24961     -16.371864    
   8990000   293.86046     -2219.6659      630.34394     -275.40863     -23.024944    
   8995000   298.08767     -2202.134       591.59109     -277.72878     -4.5140556    
   9000000   306.58402     -2228.5796      575.92561     -281.85087     -22.505185    
   9005000   308.08944     -2203.7731      619.97463     -206.26437      19.02104     
   9010000   306.2963      -2237.036       568.81757     -298.70174      8.1909006    
   9015000   307.6626      -2251.3318      611.63303     -264.07308     -4.3344859    
   9020000   295.8616      -2252.3935      591.17024     -338.36238      5.1950305    
   9025000   299.0602      -2231.1504      624.61047     -269.37743     -7.1190383    
   9030000   303.29927     -2243.3583      630.17932     -257.06272     -6.4858466    
   9035000   297.01847     -2257.0912      625.5156      -303.5421      -11.08118     
   9040000   311.83598     -2259.0193      608.89736     -255.83618     -9.5652587    
   9045000   288.71823     -2269.1363      607.17196     -371.043        2.6637902    
   9050000   300.50857     -2236.2305      579.24497     -313.3471      -14.302641    
   9055000   300.77792     -2235.8638      593.033       -297.988        13.866049    
   9060000   308.74746     -2217.8373      579.52019     -257.84081      4.7633349    
   9065000   308.87913     -2230.0098      637.9521      -210.9927      -12.920737    
   9070000   301.24168     -2234.6876      613.69289     -274.07832     -0.45585397   
   9075000   297.62538     -2198.1899      604.51297     -262.92979      12.274497    
   9080000   314.22295     -2202.3435      606.10952     -191.27553     -12.304272    
   9085000   295.11585     -2217.6481      603.97124     -294.15048     -15.016945    
   9090000   312.92767     -2228.5201      614.31485     -215.03837      8.4929752    
   9095000   306.0623      -2194.1862      575.91449     -249.80133      18.529308    
   9100000   304.05314     -2191.3306      586.57454     -245.26908     -1.855872     
   9105000   305.12217     -2159.9329      624.96317     -170.70284      7.6230117    
   9110000   308.24704     -2193.4969      621.18192     -194.07618     -3.7601926    
   9115000   305.74772     -2200.3843      587.01446     -246.30604      0.361901     
   9120000   299.25878     -2205.6525      582.35244     -285.24968      10.177354    
   9125000   295.07149     -2225.7595      610.43296     -295.9984      -10.700276    
   9130000   305.11842     -2210.1267      575.15618     -270.72049      9.9893817    
   9135000   289.04637     -2221.4174      623.19791     -305.83104     -5.7013167    
   9140000   293.33467     -2215.9895      593.27649     -311.15062      12.885367    
   9145000   306.19882     -2198.4784      620.25493     -209.14272     -13.737321    
   9150000   298.56089     -2191.7122      586.83478     -269.94741     -2.8721579    
   9155000   295.21885     -2197.8444      591.02672     -286.83073      6.5967457    
   9160000   303.65837     -2147.5507      645.45187     -144.37693     -0.98102882   
   9165000   297.70848     -2172.6752      629.77695     -211.77963      1.5064141    
   9170000   284.29895     -2174.8362      617.39303     -286.28145      22.169846    
   9175000   298.72678     -2167.9122      641.23043     -191.01008     -9.7238107    
   9180000   291.77431     -2173.3604      602.74913     -266.02554      21.920602    
   9185000   297.20186     -2146.7514      643.04894     -174.84901     -4.4248848    
   9190000   297.76031     -2159.7036      604.38557     -223.96768      3.6978378    
   9195000   302.37889     -2178.622       592.80487     -233.81602     -0.77200075   
   9200000   305.90731     -2169.9138      635.12136     -167.01507     -13.156606    
   9205000   291.67732     -2140.8574      606.69762     -230.00774      32.341996    
   9210000   301.78836     -2130.4179      600.24236     -180.81487      16.550282    
   9215000   297.80006     -2167.4073      572.21699     -263.66217     -19.975577    
   9220000   294.3286      -2144.6973      570.47457     -258.21627      6.6880083    
   9225000   307.21231     -2122.1802      643.43137     -105.13653     -4.010495     
   9230000   307.97505     -2122.0641      593.77911     -151.26235      15.990118    
   9235000   287.82934     -2122.9419      590.14459     -245.85043      8.8560135    
   9240000   308.85602     -2082.631       623.56097     -78.10832      -18.499225    
   9245000   297.80118     -2092.9245      597.48285     -163.90851      1.1011215    
   9250000   294.67235     -2143.8699      602.3459      -223.98058      13.002556    
   9255000   306.30023     -2134.4743      631.91909     -133.02101      13.862895    
   9260000   298.47598     -2113.6979      600.8268      -178.32078      15.422944    
   9265000   295.81799     -2085.4823      593.00111     -169.81533      2.063161     
   9270000   304.83384     -2083.8017      636.01806     -84.805968     -2.3654303    
   9275000   301.68311     -2101.101       623.47377     -128.73721     -3.95463      
   9280000   300.96321     -2106.0078      650.74655     -109.58998     -3.9302359    
   9285000   290.25707     -2085.1408      614.195       -173.14396      11.164816    
   9290000   291.47006     -2089.9435      575.49258     -211.2256       5.1441311    
   9295000   305.63447     -2086.2505      610.17074     -109.52229     -3.8649938    
   9300000   304.45359     -2086.9736      624.10522     -101.59085     -5.4106603    
   9305000   304.61358     -2066.3036      599.84446     -104.46632     -2.1098247    
   9310000   308.72395     -2078.4361      618.55153     -79.513428     -6.4241462    
   9315000   307.64922     -2081.23        622.07442     -83.589773      24.704015    
   9320000   294.66411     -2091.8504      602.6708      -171.673       -12.690128    
   9325000   292.37861     -2105.5109      600.13652     -198.08672      14.162866    
   9330000   290.76721     -2109.7833      578.93798     -230.76259     -5.6262904    
   9335000   299.09716     -2100.8177      634.33572     -129.15429     -7.7839735    
   9340000   300.9389      -2127.2748      608.82698     -172.88525     -3.5583568    
   9345000   303.49891     -2130.6193      656.13907     -117.4713       16.353708    
   9350000   294.50202     -2115.7832      612.36079     -186.6405       10.615319    
   9355000   295.27318     -2108.0611      600.42727     -187.40389     -7.7530373    
   9360000   302.53687     -2111.1537      644.57002     -113.87622     -9.4943894    
   9365000   313.01741     -2112.0206      623.53298     -88.91944       6.8510765    
   9370000   294.3866      -2132.4235      617.68516     -198.47254      12.001573    
   9375000   301.3682      -2136.9652      597.38324     -192.09991     -10.118969    
   9380000   293.88519     -2133.1752      610.15894     -208.99233      4.0654513    
   9385000   287.00862     -2145.6052      580.98572     -281.34223     -2.6132246    
   9390000   298.03236     -2140.0627      597.73904     -209.7569      -13.396774    
   9395000   308.30479     -2128.9869      593.40991     -157.07993      1.6954258    
   9400000   299.39625     -2112.3574      635.60786     -138.08451      4.3568255    
   9405000   295.03863     -2107.6906      585.6036      -202.9058       1.7280685    
   9410000   295.41393     -2127.7198      625.18444     -181.67619     -5.5763766    
   9415000   291.44609     -2122.3794      637.48218     -181.77908     -0.67293897   
   9420000   297.3531      -2093.7152      598.52582     -165.6597       8.0264961    
   9425000   304.02681     -2132.6406      591.03685     -182.23448     -8.5047275    
   9430000   302.46829     -2112.3182      610.26202     -149.65546      20.508382    
   9435000   300.34412     -2135.8192      611.85407     -181.06196     -12.372896    
   9440000   292.55624     -2130.0418      615.46519     -206.49478     -7.4361833    
   9445000   300.57241     -2115.57        586.49639     -185.14975      2.8690763    
   9450000   294.46182     -2150.3945      623.05213     -210.74023     -11.641624    
   9455000   308.86115     -2136.6966      581.13101     -174.58101      5.9061747    
   9460000   301.08536     -2123.3945      634.37351     -142.80359     -8.3534391    
   9465000   294.87398     -2127.6724      618.22881     -190.99858     -13.404313    
   9470000   296.32974     -2117.945       617.246       -175.74503     -3.7624055    
   9475000   291.96377     -2108.0005      618.3264      -184.24126     -7.8710031    
   9480000   294.08452     -2116.949       649.93243     -152.10147      20.322122    
   9485000   309.87875     -2102.7686      623.70618     -93.527906     -6.4091873    
   9490000   292.6869      -2113.4993      579.83981     -224.99335      2.5247269    
   9495000   291.45789     -2110.4558      591.72022     -215.56466      19.435024    
   9500000   295.29714     -2147.3213      627.62295     -199.36137      26.68509     
   9505000   288.49271     -2125.6367      607.23276     -228.49099      17.583469    
   9510000   303.07155     -2114.652       629.96746     -129.58644      17.77864     
   9515000   295.35939     -2120.7385      631.82927     -168.29387     -12.0808      
   9520000   303.16264     -2102.5746      618.31972     -128.74949     -14.576653    
   9525000   299.60076     -2096.2829      623.48555     -133.21795      7.4895481    
   9530000   297.25232     -2124.9561      631.00951     -164.86754     -11.323471    
   9535000   310.64836     -2116.1515      597.11246     -130.06334      0.07727308   
   9540000   307.75837     -2115.3426      631.87314     -107.41558     -14.71417     
   9545000   302.41002     -2120.6666      593.90179     -174.6246       1.7327455    
   9550000   293.88857     -2132.1691      642.22177     -175.90832     -4.0626115    
   9555000   301.97466     -2141.1391      606.0302      -184.91523     -9.1136583    
   9560000   295.58146     -2091.5639      607.44799     -162.50761      11.439059    
   9565000   304.40676     -2104.0452      590.69324     -152.28391     -4.4778862    
   9570000   297.94856     -2100.113       580.06405     -187.8568      -4.0851293    
   9575000   305.68759     -2080.4746      627.61995     -86.059715     -3.7711508    
   9580000   300.74532     -2092.9537      620.27074     -127.98592      15.070177    
   9585000   290.90628     -2079.4054      627.10161     -151.59924     -3.0024682    
   9590000   306.87352     -2113.0675      596.5702      -144.39976     -26.900043    
   9595000   311.68789     -2121.759       600.36422     -127.77114      0.097207409  
   9600000   300.96174     -2106.411       599.33129     -161.4151       7.0888929    
   9605000   292.57982     -2112.9598      612.29907     -192.47341      10.64396     
   9610000   288.42236     -2091.9169      601.04004     -201.27847      29.649227    
   9615000   297.62794     -2098.0707      590.83862     -176.47355      0.41411297   
   9620000   302.24523     -2117.5474      631.67549     -134.46854     -3.1194085    
   9625000   291.84555     -2110.3601      638.95378     -166.50203     -17.148191    
   9630000   299.8397      -2097.0293      616.04056     -140.3409      -8.2897433    
   9635000   292.77086     -2085.7644      651.40664     -125.31627      8.2688898    
   9640000   306.05433     -2081.715       571.62488     -141.65542     -2.2075343    
   9645000   293.88419     -2104.4089      626.49311     -163.89638     -3.6613673    
   9650000   295.7841      -2109.374       608.19939     -178.66031      6.6338478    
   9655000   300.19892     -2128.2284      595.13839     -190.83605     -0.98447036   
   9660000   295.92449     -2130.082       622.51263     -184.42733      3.5534761    
   9665000   295.46093     -2109.6129      572.87923     -215.66432      24.288173    
   9670000   298.87354     -2135.7919      585.06943     -214.39456     -6.2946625    
   9675000   307.86703     -2120.8317      620.3353      -123.95674     -17.061828    
   9680000   302.81593     -2136.6894      594.11572     -188.61855      8.1542441    
   9685000   301.43365     -2111.2349      638.85724     -124.60293     -7.2988067    
   9690000   297.81974     -2118.4244      615.72553     -171.08275     -21.135885    
   9695000   295.25588     -2117.4016      586.98519     -210.26389     -21.251231    
   9700000   297.11851     -2137.7506      631.66604     -177.60384     -0.19402573   
   9705000   312.67356     -2134.0445      601.4826      -134.53116     -24.262689    
   9710000   300.5232      -2121.3175      586.44997     -191.16362     -13.490183    
   9715000   293.22487     -2110.9152      601.09545     -198.74832     -10.043949    
   9720000   293.30484     -2158.4365      623.48567     -223.52183     -7.7586226    
   9725000   303.84197     -2125.5676      623.66669     -143.35813      8.2189746    
   9730000   291.92128     -2156.1147      622.83624     -228.03563     -9.6568142    
   9735000   292.16966     -2133.2806      620.98032     -205.94684     -0.68517388   
   9740000   300.91263     -2160.2012      596.37182     -218.38427     -16.831773    
   9745000   302.82778     -2140.2782      615.1123      -171.15776     -2.7353624    
   9750000   301.84598     -2143.4063      583.73808     -210.04994      13.507427    
   9755000   293.38912     -2167.268       609.66689     -245.79528      2.2905123    
   9760000   292.83804     -2173.3043      591.08264     -272.87974     -4.7081986    
   9765000   302.63038     -2154.8621      624.04983     -177.68673     -6.3874927    
   9770000   297.78604     -2147.7034      607.26937     -208.96859      10.647073    
   9775000   302.63453     -2144.838       593.33541     -198.3585      -1.738856     
   9780000   294.88598     -2164.6984      624.55355     -221.64625      21.775956    
   9785000   296.42294     -2181.5268      601.75122     -254.40488     -10.269089    
   9790000   304.2782      -2142.1463      607.53681     -174.11618     -6.9869766    
   9795000   302.30924     -2154.884       614.34798     -188.84638     -20.852532    
   9800000   299.80769     -2150.964       618.2816      -192.17777     -10.338704    
   9805000   297.87895     -2134.4363      631.66175     -170.89364      7.338095     
   9810000   302.89914     -2127.801       603.82081     -169.65299      14.448781    
   9815000   299.01407     -2135.7322      600.44822     -198.32778     -8.6817804    
   9820000   300.07725     -2139.9994      632.70184     -165.5876      -6.0689003    
   9825000   300.1822      -2144.921       615.82498     -186.91688     -0.62986074   
   9830000   304.00726     -2126.2703      641.20425     -125.78419      9.9088942    
   9835000   305.2267      -2125.6971      611.88823     -149.07466      8.2300264    
   9840000   303.07136     -2141.8259      625.68533     -161.04338      18.585172    
   9845000   309.09591     -2120.8406      591.75733     -147.04898      0.76168848   
   9850000   302.87133     -2111.3384      612.09304     -145.0425       20.972909    
   9855000   282.8998      -2118.5818      594.59246     -259.08346     -3.7126942    
   9860000   305.91438     -2112.8879      533.8096      -211.26929     -7.8470722    
   9865000   300.85451     -2108.0263      586.05123     -176.78984      22.092045    
   9870000   300.79846     -2110.145       611.48952     -153.72089     -2.7436176    
   9875000   311.65342     -2135.8463      598.23982     -144.13698     -4.5480072    
   9880000   298.96655     -2127.1079      593.26789     -197.09627     -2.0985847    
   9885000   297.4128      -2113.684       585.28968     -198.59775     -5.6765195    
   9890000   299.59393     -2106.2122      591.12139     -175.54195     -2.9129639    
   9895000   306.24064     -2108.2566      632.86094     -106.12788      9.2091351    
   9900000   293.7951      -2100.9521      631.48081     -155.85026      11.043297    
   9905000   311.0908      -2134.1869      592.1349      -151.09818     -4.280717     
   9910000   302.6404      -2118.2712      626.93799     -138.16291     -6.3250529    
   9915000   310.80507     -2130.6679      615.5472      -125.44442      5.2300864    
   9920000   300.48016     -2124.5496      618.67292     -162.36528     -6.0083325    
   9925000   306.02486     -2136.8831      623.29414     -145.28601     -4.5644789    
   9930000   294.32589     -2128.8537      603.52507     -209.3343      -6.902567     
   9935000   307.631       -2114.1757      599.67625     -139.01506     -4.3623265    
   9940000   295.92685     -2122.63        612.5553      -186.9221      -3.5253221    
   9945000   300.12085     -2126.5479      597.86898     -186.77405      9.745331     
   9950000   300.27976     -2123.064       598.92212     -181.52655      6.637946     
   9955000   293.63753     -2144.4575      596.79828     -234.74271      8.9512338    
   9960000   304.63431     -2161.8231      595.47262     -204.26493      16.703186    
   9965000   298.55573     -2139.9961      595.26281     -209.82643      6.2619936    
   9970000   300.96084     -2152.373       586.59417     -220.11821     -19.926956    
   9975000   307.40697     -2162.3061      608.47601     -179.34737      2.6334058    
   9980000   292.38279     -2170.8398      637.1105      -226.42298      9.0633756    
   9985000   302.56655     -2151.9161      605.28446     -193.79154     -10.475188    
   9990000   303.74023     -2149.0941      631.45634     -159.54988      3.5271415    
   9995000   308.37106     -2148.725       598.82465     -171.10707      3.0273727    
  10000000   306.372       -2168.5163      609.24758     -189.41359      3.9839279    
  10005000   296.46188     -2155.0604      623.73325     -205.78232      2.8458327    
  10010000   305.70066     -2190.1428      612.49722     -210.79212     -1.0159377    
  10015000   313.6107      -2188.302       615.93957     -170.14157     -11.737033    
  10020000   306.65178     -2179.288       631.66482     -176.51711     -16.962779    
  10025000   296.30724     -2181.27        623.4218      -232.99473      9.5857219    
  10030000   304.92544     -2166.3041      603.66287     -199.25399     -10.755501    
  10035000   310.39423     -2182.0179      613.51635     -180.66222     -15.468441    
  10040000   298.82411     -2179.3015      639.83262     -203.36203      6.1091217    
  10045000   291.58276     -2164.2278      609.33262     -251.16594     -3.7240883    
  10050000   291.98168     -2154.3738      645.22557     -203.63536      0.072073345  
  10055000   296.58738     -2175.3082      604.02489     -245.17735      0.68810284   
  10060000   298.55065     -2158.8319      592.87491     -231.0728      -6.6147968    
  10065000   303.65737     -2172.6482      598.79517     -216.13559     -1.8678593    
  10070000   305.40681     -2121.7308      652.37977     -103.81147     -16.838165    
  10075000   298.52041     -2167.9952      593.09089     -240.15537     -12.770277    
  10080000   309.23378     -2130.3741      622.57376     -125.14958     -2.5514961    
  10085000   302.35211     -2129.4657      588.28157     -189.30282      13.388082    
  10090000   290.9318      -2131.5967      603.30743     -227.47063      8.520084     
  10095000   302.42449     -2112.68        580.01288     -180.4622       11.530983    
  10100000   302.14502     -2118.4475      581.93679     -185.55539      22.563664    
  10105000   298.76825     -2142.4588      601.47628     -205.12544      14.437634    
  10110000   297.95737     -2123.7149      608.45137     -183.03204      4.3198028    
  10115000   303.07868     -2146.5105      610.32933     -181.05123      22.476741    
  10120000   301.19848     -2142.6161      594.16601     -201.72694     -4.1189154    
  10125000   302.94883     -2105.051       621.34539     -129.1562      -3.3682632    
  10130000   298.64488     -2129.5374      614.39942     -179.83247      4.1875246    
  10135000   291.80141     -2118.5817      612.63053     -201.24434     -13.224692    
  10140000   304.02416     -2115.8184      613.16745     -143.29351     -0.45817979   
  10145000   302.06858     -2127.4674      596.26345     -180.59041      17.008563    
  10150000   295.43692     -2120.4494      608.25246     -191.23496      0.97735299   
  10155000   298.37799     -2109.9624      600.40347     -175.44682      2.8140353    
  10160000   285.50644     -2114.5161      605.54089     -232.41456     -6.3474275    
  10165000   297.90382     -2128.8614      610.27776     -186.59162     -9.4955415    
  10170000   306.60992     -2137.1531      632.10444     -134.12982     -3.6723763    
  10175000   306.05116     -2131.1973      594.83921     -167.93754     -15.923234    
  10180000   292.6456      -2136.2678      603.87532     -223.9111       5.34266      
  10185000   299.4583      -2123.0235      693.7039      -90.377147     -16.713378    
  10190000   300.62585     -2131.4759      627.92119     -159.39192      10.772899    
  10195000   303.76486     -2109.0563      663.33751     -87.52077       1.2045431    
  10200000   290.55229     -2117.5032      610.95907     -207.42238     -12.687138    
  10205000   298.00665     -2162.4086      626.78097     -203.1758       3.8107345    
  10210000   306.68916     -2119.6279      600.89653     -147.45812      11.446006    
  10215000   298.33067     -2115.3271      597.36641     -184.06008      8.655969     
  10220000   302.44558     -2111.1639      642.95076     -115.91393     -10.452037    
  10225000   303.0193      -2111.7444      570.60329     -186.27671      2.2898109    
  10230000   312.3107      -2134.0527      607.68901     -129.95542      23.433547    
  10235000   302.19512     -2092.5349      607.82547     -133.53004      20.671253    
  10240000   296.92457     -2126.5237      598.1706      -200.73948      5.9947589    
  10245000   300.2143      -2128.3039      581.90452     -204.07665     -4.6756973    
  10250000   296.7251      -2140.5928      618.83081     -195.04028      4.8219582    
  10255000   294.2533      -2133.224       607.24638     -210.3078      -25.604722    
  10260000   303.13285     -2139.1818      596.3834      -187.4262      -9.9959763    
  10265000   297.48444     -2134.1993      597.40505     -206.67737     -9.9954428    
  10270000   299.9427      -2142.6679      587.46464     -214.09499      1.8738277    
  10275000   315.2428      -2133.5186      553.85312     -170.14718     -1.2129319    
  10280000   307.18176     -2124.4125      624.06442     -126.87235      6.2327658    
  10285000   304.28713     -2124.0362      618.59907     -144.90394     -25.262458    
  10290000   299.84302     -2124.6216      592.30666     -191.6523       8.6311503    
  10295000   296.92326     -2112.7779      629.20906     -155.96106     -21.854738    
  10300000   298.80217     -2117.4686      607.77982     -173.68004      4.2606215    
  10305000   305.40458     -2137.4787      597.80246     -174.14663      11.397275    
  10310000   292.1454      -2136.7355      603.98104     -226.50958      8.2000647    
  10315000   306.58087     -2109.0232      587.13938     -151.09484     -4.8641525    
  10320000   291.19086     -2142.1894      604.29133     -235.92108     -30.275736    
  10325000   299.70627     -2123.1107      631.76487     -151.29461     -3.2442667    
  10330000   292.47117     -2146.65        602.6167      -236.33183      9.8924345    
  10335000   293.81554     -2116.2082      603.85873     -198.63697      12.187264    
  10340000   296.89752     -2106.2419      594.46208     -184.2872       11.365844    
  10345000   290.11202     -2138.7404      592.41371     -249.17349      3.0199634    
  10350000   299.6762      -2135.698       598.931       -196.85026     -2.0299728    
  10355000   295.33332     -2138.1867      595.12242     -222.56544     -12.256138    
  10360000   299.7187      -2135.0238      589.14232     -205.77469      24.577802    
  10365000   295.89669     -2156.822       601.65067     -232.15355     -7.1268717    
  10370000   310.48772     -2127.6853      598.68454     -140.74343     -1.5475745    
  10375000   291.09868     -2141.661       626.77593     -213.32022      22.050877    
  10380000   300.00523     -2135.9266      613.29016     -181.24853     -8.0133978    
  10385000   293.84676     -2131.785       602.73295     -215.20003      11.68784     
  10390000   295.52992     -2132.8367      609.01661     -202.44228     -3.8982232    
  10395000   300.58202     -2129.3644      602.72402     -182.67351     -11.689404    
  10400000   297.34591     -2132.1096      620.60203     -182.01        -25.486712    
  10405000   305.42536     -2123.1505      613.35477     -144.17328      11.96871     
  10410000   298.53594     -2115.2294      619.33914     -161.07189      20.933799    
  10415000   304.24083     -2132.2218      620.29892     -151.5967       0.40092133   
  10420000   300.58558     -2120.3846      610.52148     -165.88036      13.24507     
  10425000   298.93229     -2146.8416      616.46902     -193.78201     -2.6106792    
  10430000   291.27641     -2143.4469      568.95828     -272.12919      14.496601    
  10435000   301.66347     -2138.0267      594.48819     -194.73628      12.91392     
  10440000   295.63643     -2140.8283      617.14123     -201.83302     -1.1308944    
  10445000   311.53231     -2141.4874      606.94679     -141.61266      8.0570066    
  10450000   308.01687     -2091.1968      590.50132     -123.48584      6.932285     
  10455000   294.24038     -2127.9158      643.18638     -169.11735     -5.1165624    
  10460000   305.18487     -2138.2748      634.27214     -139.45546     -4.9698079    
  10465000   297.05733     -2107.6672      585.03661     -194.42337      16.853406    
  10470000   296.57141     -2115.4476      610.57389     -178.83915      12.14675     
  10475000   311.84766     -2146.2669      610.96862     -140.96033      11.037183    
  10480000   297.21256     -2154.0312      615.67116     -209.45877     -4.4326321    
  10485000   313.57574     -2119.0691      623.11878     -93.885753      15.91743     
  10490000   297.88695     -2123.7476      630.10292     -161.72806      9.9931412    
  10495000   296.09534     -2111.8409      606.98421     -180.9507      -4.5442518    
  10500000   295.5241      -2132.965       628.85365     -182.75951     -10.226209    
  10505000   299.58122     -2119.1913      621.12406     -158.57512      1.016129     
  10510000   304.56048     -2114.1267      577.35668     -175.01461      12.101178    
  10515000   293.08738     -2106.7933      616.7826      -179.55403     -3.3447092    
  10520000   296.8291      -2109.9153      631.66429     -151.0643      -2.0427097    
  10525000   301.77802     -2128.0865      577.62226     -201.14987      18.071199    
  10530000   300.41383     -2100.5535      625.40821     -131.93042     -4.7364856    
  10535000   301.43878     -2117.7376      625.83047     -144.10954      3.2956832    
  10540000   292.92463     -2099.5765      617.52749     -172.31997     -10.040988    
  10545000   296.04987     -2101.804       605.4104      -172.69093      0.77066707   
  10550000   300.81477     -2090.9764      617.89306     -128.07579      3.0685281    
  10555000   308.36849     -2139.6932      611.73051     -149.18084     -41.299198    
  10560000   308.26582     -2126.7124      589.84251     -158.54709      13.711669    
  10565000   312.14748     -2134.4421      581.26643     -157.49712     -0.32901864   
  10570000   307.86579     -2134.8043      583.64651     -174.62359     -1.9269581    
  10575000   286.41423     -2135.1881      638.45067     -216.11777      2.671842     
  10580000   297.21219     -2132.3272      606.98235     -196.44518      7.2746579    
  10585000   296.30444     -2127.5251      607.3989      -195.2853       3.8899331    
  10590000   307.99873     -2105.7034      615.3678      -113.20698     -8.4386423    
  10595000   288.78607     -2103.3808      613.54336     -198.61284      29.32362     
  10600000   296.78286     -2102.0195      600.79815     -174.24132      17.840562    
  10605000   290.67433     -2084.645       623.66607     -161.3115       7.6112861    
  10610000   296.99414     -2064.5044      610.67319     -125.90656     -2.3818517    
  10615000   301.78112     -2086.2507      618.92059     -118.00182      18.062803    
  10620000   299.10521     -2075.2692      611.85959     -126.04585     -10.021648    
  10625000   300.67758     -2083.8878      628.51733     -110.97634      2.4657071    
  10630000   300.55187     -2074.3007      603.54632     -126.92237     -12.876497    
  10635000   286.16629     -2075.991       605.66274     -190.81726     -1.0001406    
  10640000   287.0415      -2083.1802      636.53294     -163.22292     -12.371349    
  10645000   310.13002     -2066.6504      626.34801     -53.644397     -3.4549481    
  10650000   295.22605     -2087.9204      620.91014     -146.99111      8.974045     
  10655000   309.46662     -2092.5875      641.22932     -67.666341      0.65472438   
  10660000   304.2949      -2101.3913      642.01303     -98.810336      3.2915543    
  10665000   286.9291      -2100.6348      575.81818     -241.8949       6.3226827    
  10670000   303.68898     -2090.0745      573.85743     -158.35834     -2.0354943    
  10675000   293.90789     -2099.3936      570.18786     -215.08037      0.94454439   
  10680000   299.09538     -2110.5234      618.16414     -155.03946      5.5741974    
  10685000   304.54302     -2101.9952      633.28014     -107.03771     -18.371085    
  10690000   294.45459     -2111.2174      631.51139     -163.13619     -6.234431     
  10695000   303.59067     -2098.2926      634.39913     -106.47428      13.340289    
  10700000   294.63433     -2105.9078      585.97948     -202.55492     -3.7649952    
  10705000   294.99257     -2103.1361      602.95606     -181.20477     -13.02058     
  10710000   298.58953     -2100.2282      634.09522     -131.07499      10.276766    
  10715000   305.70152     -2101.618       633.33472     -101.426        6.3376253    
  10720000   302.4249      -2101.4848      625.25318     -124.0248       7.3893371    
  10725000   292.60184     -2112.4952      605.72591     -198.48348      1.6462919    
  10730000   304.5685      -2127.4804      624.96281     -140.72625      0.42355      
  10735000   298.62448     -2111.0667      599.68786     -176.16457      5.8475492    
  10740000   298.81869     -2117.7566      584.99324     -196.68075      24.145826    
  10745000   296.2521      -2100.5949      630.45594     -145.5321       12.600662    
  10750000   305.61848     -2100.8444      620.48863     -113.86977     -1.0889714    
  10755000   284.93281     -2114.8427      607.89255     -232.95425     -6.0246236    
  10760000   301.85626     -2087.7268      626.8403      -111.22225     -4.0180879    
  10765000   295.22703     -2097.9414      611.61873     -166.29909      4.7131893    
  10770000   289.19501     -2094.6471      589.27422     -212.3198       10.399397    
  10775000   294.05405     -2096.9286      592.41579     -189.73394      15.616384    
  10780000   298.62532     -2103.8108      599.48542     -169.10734      26.797069    
  10785000   298.65689     -2106.2729      614.53561     -156.37807      24.963151    
  10790000   299.51296     -2099.2656      621.34381     -138.73497     -13.600787    
  10795000   301.34872     -2099.0226      649.45649     -102.17121     -3.9321541    
  10800000   291.84245     -2097.8799      624.34129     -168.64828     -25.97614     
  10805000   300.10443     -2100.63        604.71149     -154.08709      3.1023444    
  10810000   295.43138     -2110.3779      609.59521     -179.84543      14.766643    
  10815000   304.49827     -2100.6807      616.83744     -122.366        2.6104177    
  10820000   293.7544      -2116.2243      611.57431     -191.21088     -10.534066    
  10825000   305.84496     -2098.6434      584.6776      -146.46725     -11.986766    
  10830000   310.96454     -2120.7118      583.29474     -147.02771     -3.6719697    
  10835000   310.85216     -2109.7727      607.93281     -111.95308     -2.8045849    
  10840000   313.35705     -2088.0078      641.17295     -45.748107      3.9730666    
  10845000   291.08488     -2106.7487      623.75225     -181.49332     -7.598916     
  10850000   299.49816     -2101.5914      616.10358     -146.36712      14.74892     
  10855000   295.3247      -2110.9939      617.44667     -173.08697      7.7560948    
  10860000   292.24856     -2108.2794      632.47999     -169.0932      -19.077033    
  10865000   287.16795     -2122.1396      627.03699     -211.11297      5.4159859    
  10870000   308.33462     -2119.518       594.70386     -146.18375     -2.7270484    
  10875000   299.96866     -2110.3734      604.21624     -164.93279      5.2346759    
  10880000   293.38037     -2093.5856      636.73116     -145.08768     -13.785583    
  10885000   303.21584     -2149.9778      615.72151     -178.51305     -27.514325    
  10890000   293.28755     -2108.481       594.36438     -202.7649       15.009877    
  10895000   303.72801     -2142.9574      601.25601     -183.66816     -8.7713281    
  10900000   296.93949     -2133.9681      597.71968     -208.56813      4.0731763    
  10905000   295.61313     -2140.9757      612.24222     -206.98357     -5.2545031    
  10910000   300.19916     -2128.7058      634.37027     -152.08049     -13.125386    
  10915000   304.89895     -2084.5038      594.42731     -126.8077      -8.6798263    
  10920000   300.20071     -2118.163       614.32607     -161.57495     -1.8580235    
  10925000   298.12594     -2111.4751      625.20163     -153.28829      4.4175759    
  10930000   290.24878     -2129.2955      601.21468     -230.31613      25.695258    
  10935000   294.81602     -2137.0987      601.89739     -217.0154      -20.37143     
  10940000   296.95729     -2139.8929      607.33736     -204.79559      7.6159935    
  10945000   303.34963     -2112.1229      602.63348     -153.14796      7.3725048    
  10950000   291.44481     -2115.5254      618.29651     -194.11648     -6.4596522    
  10955000   301.31621     -2146.2957      613.19006     -185.85605     -4.9726606    
  10960000   308.49076     -2147.0831      630.76714     -136.98742      1.945697     
  10965000   307.86395     -2148.436       614.39837     -157.51168     -9.4282455    
  10970000   291.94905     -2129.1664      598.56802     -225.23137     -6.5064448    
  10975000   293.79984     -2156.1428      640.85828     -201.6422       6.0101069    
  10980000   303.23291     -2136.7398      614.28972     -166.63052      9.3994205    
  10985000   302.96346     -2156.1372      635.73641     -165.78597      13.329396    
  10990000   299.37417     -2124.9021      609.02322     -177.31252     -10.825178    
  10995000   295.85487     -2148.0376      616.40732     -208.79951      12.751712    
  11000000   307.42761     -2186.2235      624.39332     -187.25526     -5.2209264    
  11005000   301.40763     -2161.5191      602.93081     -210.92991      10.700429    
  11010000   296.97337     -2122.6044      593.54366     -201.22894     -4.7142418    
  11015000   296.35447     -2128.6656      598.12002     -205.48099     -15.812539    
  11020000   307.16085     -2158.1205      613.70124     -171.03705      7.2097362    
  11025000   290.06423     -2166.0303      593.68451     -275.40627      18.072224    
  11030000   292.21467     -2163.7395      636.10682     -221.07805      11.120424    
  11035000   306.53181     -2174.7586      602.60362     -201.58531      6.0828557    
  11040000   292.00561     -2169.4428      636.25305     -227.56991     -19.302422    
  11045000   311.51217     -2159.4219      588.12382     -178.46013     -13.184304    
  11050000   308.87244     -2159.4607      600.67736     -177.74824     -8.0299682    
  11055000   299.66281     -2153.1611      595.86011     -217.44414     -1.1163242    
  11060000   302.04689     -2171.94        613.79402     -207.62935      9.4452885    
  11065000   299.66164     -2160.6043      588.31644     -232.43619     -2.1488729    
  11070000   291.50586     -2156.9834      632.24414     -221.35383     -1.1641915    
  11075000   297.65874     -2182.9278      613.54655     -238.48506      12.431941    
  11080000   300.91227     -2182.9299      573.93698     -263.5494      -20.777352    
  11085000   293.42744     -2179.332       602.55079     -264.80404      2.6810688    
  11090000   297.02005     -2180.7314      609.08535     -243.60556     -0.81263248   
  11095000   300.2604      -2195.6299      600.77294     -252.32816     -14.673252    
  11100000   297.89019     -2208.1549      646.41161     -229.81221      1.4256464    
  11105000   294.88229     -2213.5239      609.44931     -285.59241      12.423236    
  11110000   311.86815     -2192.1845      605.85771     -191.89718     -7.4599162    
  11115000   296.93304     -2199.2662      578.11407     -293.50067      3.0173418    
  11120000   307.62588     -2173.8955      601.66913     -196.76489      16.004349    
  11125000   292.45977     -2163.0595      622.0525      -233.35646      6.5706309    
  11130000   305.1848      -2182.878       605.72372     -212.60739      4.2676828    
  11135000   298.52413     -2171.3194      596.94811     -239.60567      9.008093     
  11140000   297.18783     -2168.8836      609.21911     -230.87381     -6.505484     
  11145000   297.39022     -2185.6301      612.9668      -242.9677      -9.0411586    
  11150000   299.89559     -2166.3304      604.71391     -220.71881      8.5852468    
  11155000   304.2028      -2174.8397      627.396       -187.28751     -27.807419    
  11160000   297.35751     -2167.4404      581.83964     -256.05143     -9.8186119    
  11165000   300.02697     -2199.806       646.80147     -211.51944      0.96838722   
  11170000   304.80534     -2181.539       600.21765     -218.47108      7.0583112    
  11175000   298.48915     -2178.9233      593.51061     -250.80355     -2.8138319    
  11180000   304.79452     -2181.2677      620.03905     -198.42679      10.748778    
  11185000   303.6868      -2168.9402      594.66682     -216.42442     -0.82877365   
  11190000   298.28858     -2147.0498      600.23842     -213.09894      9.5043874    
  11195000   303.62923     -2187.4055      600.26236     -229.55153      5.6634667    
  11200000   290.96653     -2170.8279      623.33581     -246.51819     -18.151247    
  11205000   302.59055     -2174.8794      622.44786     -199.48413     -10.102696    
  11210000   307.69562     -2166.0217      573.47863     -216.76982      12.721132    
  11215000   302.27869     -2158.5025      606.5186      -200.43088     -12.084596    
  11220000   301.51109     -2146.3329      622.17916     -176.03276     -24.426323    
  11225000   298.2647      -2174.5914      626.86931     -214.11642      4.1966628    
  11230000   297.94038     -2172.4501      630.86792     -209.42665      6.22536      
  11235000   291.06667     -2156.7995      628.93961     -226.43825      21.808837    
  11240000   304.52773     -2140.1264      627.07296     -151.44447      12.795041    
  11245000   312.03758     -2097.5109      594.64591     -107.67789     -11.499931    
  11250000   299.92364     -2112.9808      615.13414     -156.82354     -27.023559    
  11255000   306.09882     -2119.5823      643.68075     -107.26794      30.071683    
  11260000   312.03725     -2124.395       609.20095     -120.00836     -2.5418618    
  11265000   293.51057     -2090.2598      603.139       -174.77187      13.219086    
  11270000   297.54957     -2117.2351      593.89481     -192.93216     -5.4565524    
  11275000   295.63911     -2099.5275      576.41402     -201.24741      0.44547974   
  11280000   304.77917     -2096.2874      617.86635     -115.68783      18.374098    
  11285000   311.44906     -2099.8428      593.95169     -113.33539     -6.7069437    
  11290000   288.61546     -2066.0453      607.0409      -168.54259     -4.139742     
  11295000   293.67872     -2086.987       642.5025      -131.38375      4.9066381    
  11300000   293.40772     -2093.5549      625.6094      -156.05646      8.465167     
  11305000   300.24437     -2080.1746      590.40774     -147.30969     -12.59071     
  11310000   297.08862     -2064.1412      620.02513     -115.76895      0.72505053   
  11315000   305.23889     -2078.0427      612.63137     -100.62265     -3.5633034    
  11320000   297.15588     -2082.7003      601.64004     -152.41236      4.1669278    
  11325000   303.69074     -2084.8197      561.51443     -165.43868      36.112275    
  11330000   299.63066     -2102.33        613.44808     -149.16878      6.1537803    
  11335000   295.57157     -2082.725       598.45001     -162.71097      23.602833    
  11340000   297.01568     -2069.0354      625.64756     -115.36684     -0.57644098   
  11345000   296.61986     -2094.8514      603.30899     -165.29121      6.4840648    
  11350000   302.50412     -2090.0304      605.8787      -131.59077     -19.593205    
  11355000   300.63768     -2098.33        607.12283     -146.9914       19.910779    
  11360000   294.2514      -2109.8767      604.46814     -189.74729     -11.536655    
  11365000   298.57312     -2119.0529      582.54962     -201.5186       11.10345     
  11370000   312.30312     -2092.2174      596.74661     -99.096348      6.2984823    
  11375000   304.795       -2088.6079      558.38288     -167.42097      18.08858     
  11380000   304.75602     -2089.1765      610.83894     -115.70783     -8.3294999    
  11385000   299.87219     -2087.8664      587.24604     -159.82733      7.3797993    
  11390000   305.07566     -2105.0524      592.12624     -148.86723      0.81342211   
  11395000   297.07954     -2098.402       659.17905     -110.91642      8.5960486    
  11400000   313.28224     -2130.5593      594.75434     -135.05271     -5.0439499    
  11405000   291.46797     -2090.7069      626.36823     -161.12269     -15.754046    
  11410000   295.3172      -2099.5842      596.32681     -182.83064     -2.3420485    
  11415000   304.09962     -2082.8464      624.6086      -98.542973      3.5546873    
  11420000   299.61963     -2080.0466      621.46041     -118.92232      14.272498    
  11425000   292.61879     -2089.4057      582.59148     -198.4527      -6.2314131    
  11430000   306.79244     -2106.4165      611.33369     -123.34784     -5.7747215    
  11435000   294.00491     -2109.5524      610.55931     -184.43388     -4.1454587    
  11440000   301.61866     -2090.8088      611.02359     -131.18333      7.4542132    
  11445000   303.41064     -2121.0635      631.13814     -133.3111       2.899095     
  11450000   289.2641      -2138.8633      564.76794     -280.73341      0.51350349   
  11455000   292.50047     -2144.4042      608.93119     -227.64052      8.0351407    
  11460000   306.5531      -2099.9968      596.11811     -133.2139       4.8716445    
  11465000   297.5789      -2118.7383      634.3697      -153.8294      -3.7295325    
  11470000   308.65706     -2133.1858      637.61733     -115.49632     -8.3436179    
  11475000   303.9382      -2103.6491      597.30951     -147.3665      -2.6162261    
  11480000   298.88588     -2130.3283      650.28565     -143.65965     -8.8147836    
  11485000   312.3283      -2119.4909      567.19874     -155.80513     -7.5310548    
  11490000   295.38879     -2145.8982      612.0875      -213.06386     -3.8106125    
  11495000   308.30019     -2137.7476      602.8316      -156.43948      14.745421    
  11500000   299.59451     -2121.8905      639.85128     -142.48768     -5.6643595    
  11505000   301.03286     -2120.7416      628.46508     -146.29387      15.44428     
  11510000   308.92995     -2103.7419      613.48211     -108.96759     -10.37087     
  11515000   304.4999      -2106.4834      594.86984     -150.12898     -4.1112912    
  11520000   299.74192     -2113.5959      613.22981     -160.15555     -1.7870489    
  11525000   292.68371     -2117.9102      625.68369     -183.57472      2.4751745    
  11530000   292.66465     -2094.0797      663.04769     -122.46535      16.708891    
  11535000   315.384       -2095.9145      599.28707     -86.477787      8.0096599    
  11540000   303.97571     -2093.4654      609.27769     -125.04691     -7.790011     
  11545000   297.69195     -2101.0631      583.43796     -186.5804      -0.91700071   
  11550000   305.19557     -2094.9003      637.61403     -92.691251      0.98524167   
  11555000   303.78754     -2101.0515      614.91586     -127.83622     -3.4102894    
  11560000   314.31545     -2098.8881      634.81851     -58.697612     -3.6865422    
  11565000   309.26631     -2084.6485      639.49837     -62.353942      15.598605    
  11570000   294.07465     -2086.3495      576.28353     -195.19493     -12.481346    
  11575000   289.66724     -2092.2463      649.90397     -147.17783     -23.093406    
  11580000   301.36528     -2083.3061      642.05395     -93.783161      21.447727    
  11585000   302.80818     -2101.4674      597.33158     -150.21536     -5.083545     
  11590000   293.68622     -2096.3887      630.96579     -152.28871      10.202406    
  11595000   303.13803     -2111.6174      608.31813     -147.90388     -24.281375    
  11600000   301.19452     -2099.2933      616.34212     -136.24571     -5.7437552    
  11605000   302.29344     -2094.2182      594.72401     -147.87523     -3.5476923    
  11610000   295.73954     -2077.3919      605.52011     -149.55672     -13.634316    
  11615000   304.5847      -2090.7083      595.63109     -133.21351     -1.9866786    
  11620000   305.70416     -2081.6016      640.63197     -74.100524      7.7946058    
  11625000   296.60328     -2073.9704      589.06682     -158.72654      2.3652497    
  11630000   299.53048     -2072.7808      625.614       -107.90158      15.925121    
  11635000   301.27875     -2081.9812      650.3177      -84.581427     -0.057736046  
  11640000   300.5097      -2076.5949      614.19557     -118.75578      3.989766     
  11645000   301.14772     -2080.6112      628.32689     -105.78812     -3.4487156    
  11650000   298.83384     -2080.6601      616.09275     -128.417        1.1412794    
  11655000   301.75954     -2063.2253      643.70347     -70.290004     -4.6291602    
  11660000   308.06602     -2061.8198      630.54424     -53.846059      15.64819     
  11665000   304.59668     -2078.1319      637.03106     -79.183558      3.6861149    
  11670000   297.00181     -2069.839       625.86185     -116.01813     -0.8417609    
  11675000   312.82683     -2066.9091      614.6244      -53.56864       9.6051719    
  11680000   295.58439     -2060.2588      632.74551     -105.89195     -10.994158    
  11685000   302.17091     -2060.1109      621.12573     -87.914042      7.3420337    
  11690000   304.25546     -2084.5893      630.74812     -93.449601     -1.5155443    
  11695000   309.40686     -2095.4732      644.96276     -67.085827     -1.4771333    
  11700000   304.71515     -2118.8771      617.77319     -138.65695     -18.780788    
  11705000   300.5955      -2072.4777      603.65017     -124.80038     -20.779734    
  11710000   292.40008     -2087.7533      623.88184     -156.48787      15.62839     
  11715000   304.49315     -2103.7247      618.51799     -123.75237      19.606642    
  11720000   302.7342      -2091.1348      612.83455     -124.71054      5.9001791    
  11725000   292.41747     -2092.4929      633.24257     -151.78892     -6.1548143    
  11730000   299.39719     -2063.1197      575.98832     -148.46214     -6.2102125    
  11735000   297.37971     -2075.3961      607.87398     -137.87345     -7.8971236    
  11740000   291.03913     -2078.3561      600.49039     -176.5672      -2.1976268    
  11745000   305.14972     -2099.0157      608.42313     -126.20259     -19.462658    
  11750000   284.63535     -2105.5295      558.88015     -273.98351     -4.9835936    
  11755000   304.79026     -2106.9781      581.58652     -162.60881      0.012320873  
  11760000   311.23977     -2125.3524      621.96421     -111.7683       2.7695063    
  11765000   285.64025     -2102.809       637.00407     -188.64596      17.127608    
  11770000   299.55408     -2088.9912      644.88145     -104.73908      0.6478707    
  11775000   299.94647     -2113.3134      645.95299     -126.23528     -0.82624764   
  11780000   292.03223     -2105.3972      608.32188     -191.33644     -0.96646158   
  11785000   309.98403     -2099.9746      678.78765     -35.181623      8.3614697    
  11790000   314.66707     -2099.8532      631.17138     -61.737697      6.7691864    
  11795000   293.06408     -2101.168       626.55707     -164.25845     -7.7132546    
  11800000   306.52483     -2095.4298      592.61848     -132.27291     -17.454179    
  11805000   309.38359     -2101.2896      583.66166     -134.30742     -8.9015478    
  11810000   306.54453     -2083.1002      596.18758     -116.28611     -5.4051695    
  11815000   297.2475      -2127.3244      604.59962     -193.66727      24.823007    
  11820000   289.95272     -2101.3861      617.08431     -187.86076     -15.460134    
  11825000   302.70573     -2122.9875      621.49777     -148.02731     -7.5788332    
  11830000   312.30407     -2088.6759      608.39212     -83.905148     -0.78558257   
  11835000   299.65059     -2082.9169      600.68022     -142.43442      24.403233    
  11840000   309.26957     -2115.449       631.68681     -100.95145     -23.243027    
  11845000   305.01782     -2114.35        593.80973     -156.73993     -3.5926831    
  11850000   293.88821     -2122.1679      622.26228     -185.86823      8.1458616    
  11855000   309.92192     -2090.7675      609.77479     -95.265159      12.275551    
  11860000   307.44685     -2100.6867      597.81568     -128.21         13.609146    
  11865000   304.07782     -2127.3995      590.32076     -177.48138      5.3766189    
  11870000   299.43593     -2126.4754      583.90691     -203.72605     -4.3056996    
  11875000   299.31775     -2112.019       578.39049     -195.31444     -9.4886698    
  11880000   284.89002     -2108.4001      624.43169     -210.1638      -6.1371567    
  11885000   300.33245     -2097.4084      615.18478     -139.37267     -11.273353    
  11890000   308.46817     -2104.2775      603.9341      -121.1159      -6.0672637    
  11895000   300.24954     -2110.8949      587.44868     -180.96598     -15.311023    
  11900000   302.93775     -2135.0488      659.32864     -121.22032      20.221556    
  11905000   313.64851     -2134.4847      591.91142     -140.18337     -7.7708123    
  11910000   305.96003     -2120.1142      621.64318     -130.45787      36.607494    
  11915000   308.18312     -2112.5461      624.82141     -109.77164     -16.326478    
  11920000   294.72497     -2104.5501      593.46024     -193.31117      1.3406518    
  11925000   306.08729     -2123.2125      614.51524     -140.11513     -8.4774765    
  11930000   310.35166     -2111.2631      641.32618     -82.287893     -13.18646     
  11935000   304.22073     -2127.3993      617.70139     -149.46156      3.124642     
  11940000   306.75637     -2125.0576      593.57984     -159.90406     -4.1515821    
  11945000   299.32848     -2134.5692      621.16314     -175.04408     -14.578803    
  11950000   306.8269      -2104.7379      592.46593     -140.38288     -21.492534    
  11955000   303.69111     -2124.5171      612.74523     -153.90361     -6.9667852    
  11960000   309.36548     -2107.4642      608.72978     -115.49482     -10.045187    
  11965000   294.41804     -2092.1875      572.13038     -203.65076     -21.452716    
  11970000   301.51226     -2115.8571      629.11427     -138.61663      13.079165    
  11975000   299.62948     -2109.922       622.61413     -147.6         -7.9517518    
  11980000   295.52965     -2112.8343      614.68901     -176.76867      6.8398295    
  11985000   294.4239      -2104.9871      624.62165     -163.93292      29.755945    
  11990000   310.34941     -2080.4186      608.71511     -84.064549      6.5079208    
  11995000   298.31816     -2090.6512      612.64478     -144.16176     -21.499967    
  12000000   300.06454     -2105.636       607.20472     -156.77822      14.535746    
  12005000   291.16609     -2119.3339      612.56451     -204.90315     -4.3182818    
  12010000   299.31671     -2112.449       593.17143     -180.96814     -12.045792    
  12015000   298.93419     -2092.1287      632.10763     -123.42201      4.5279712    
  12020000   302.74396     -2088.2299      605.15847     -129.43805      28.78055     
  12025000   306.69841     -2107.0498      593.78783     -141.94738     -2.7597549    
  12030000   299.54079     -2097.3181      597.80195     -160.20483      9.2493589    
  12035000   300.05134     -2077.0884      618.99875     -116.49556     -2.7601622    
  12040000   298.07981     -2076.6575      612.75324     -131.12529      24.125906    
  12045000   296.05656     -2066.5877      601.47068     -141.38446     -19.986435    
  12050000   297.65097     -2056.7966      608.28798     -117.6471       0.90643345   
  12055000   298.60393     -2059.3249      608.73365     -115.46882      1.4212189    
  12060000   300.14953     -2041.9286      593.20418     -106.69127      18.297146    
  12065000   311.51123     -2064.546       606.1342      -65.578074      9.2116704    
  12070000   294.23238     -2052.7158      621.89428     -115.24521     -11.179447    
  12075000   296.34831     -2063.9508      649.54073     -89.372982     -2.954946     
  12080000   298.1463      -2077.0048      620.83857     -123.09004     -2.738077     
  12085000   301.52583     -2051.3517      616.58654     -86.578355     -5.3481352    
  12090000   298.88723     -2040.7715      627.79537     -76.587014      1.6491976    
  12095000   296.4856      -2053.9735      564.98406     -163.33861      1.9595353    
  12100000   308.08477     -2062.8871      634.39299     -50.980831     -10.191651    
  12105000   307.54448     -2063.226       609.39322     -78.735322     -6.3150048    
  12110000   295.29401     -2051.8224      628.70386     -102.7955       8.956475     
  12115000   299.64762     -2064.1949      640.47656     -83.929408      13.319995    
  12120000   310.01887     -2055.0546      601.87421     -67.019342      8.082073     
  12125000   299.42413     -2053.5858      613.95747     -100.83868      14.502911    
  12130000   297.89466     -2061.4992      593.65464     -135.89343     -22.943904    
  12135000   295.19826     -2084.9034      627.84789     -137.16064     -5.8418282    
  12140000   308.24485     -2055.6316      602.98359     -74.418979     -2.0358698    
  12145000   305.17178     -2079.1055      578.56989     -136.04698     -0.37803679   
  12150000   301.44037     -2081.705       628.8022      -105.0981      -2.0394015    
  12155000   301.49572     -2052.0494      599.86116     -104.13602     -1.6759766    
  12160000   296.28382     -2067.1261      635.88956     -106.4879      -6.1363513    
  12165000   301.71438     -2057.4704      649.51571     -58.924804     -3.4115556    
  12170000   301.9957      -2065.6937      627.80203     -87.603922      7.5738658    
  12175000   296.76871     -2064.6885      642.58467     -95.187069     -6.8635866    
  12180000   301.91563     -2047.7042      598.50598     -99.268526     -15.551008    
  12185000   298.93467     -2035.0477      606.73998     -91.70647       24.587174    
  12190000   289.3792      -2065.2428      613.04247     -158.32364      1.4959134    
  12195000   306.98357     -2075.0203      614.58914     -87.841548      16.078405    
  12200000   297.56605     -2027.2043      631.0601      -65.662358     -28.302915    
  12205000   305.31803     -2064.8264      592.26701     -107.41685      6.9637839    
  12210000   293.32772     -2063.8433      626.14376     -126.16829     -11.830415    
  12215000   298.86222     -2055.1752      608.61284     -110.2851      -3.0139647    
  12220000   299.97769     -2072.8256      646.63791     -84.922858      2.1141916    
  12225000   305.39897     -2055.823       607.94975     -82.368724      1.1074857    
  12230000   298.56434     -2073.5053      640.22894     -98.330988     -0.11517196   
  12235000   311.30106     -2061.8271      602.90279     -67.030321     -7.3566394    
  12240000   293.20074     -2091.5718      594.88358     -185.7246       21.262619    
  12245000   294.92454     -2074.0335      656.54238     -98.820089     -2.5327493    
  12250000   303.67704     -2052.1251      596.39349     -97.92628      -3.9121154    
  12255000   303.99261     -2047.5903      593.43378     -94.940148     -2.2852824    
  12260000   309.21539     -2063.9662      624.44238     -56.955312      13.262246    
  12265000   303.75429     -2070.7567      611.17186     -101.43409      13.972889    
  12270000   300.38605     -2077.2949      598.74344     -135.46077      18.742849    
  12275000   301.92935     -2079.5916      593.87323     -135.72732     -0.81140406   
  12280000   297.19197     -2082.7517      609.08608     -144.85635      4.6390556    
  12285000   294.88944     -2065.897       607.42989     -139.95304      14.11685     
  12290000   302.14652     -2099.6966      606.12626     -142.60832      27.532244    
  12295000   300.39463     -2108.5976      652.61671     -112.85191      6.2381354    
  12300000   304.93602     -2098.206       608.34686     -126.4246       6.6371026    
  12305000   309.5466      -2099.9582      612.43375     -103.47504      2.0250132    
  12310000   307.24036     -2101.4657      622.65968     -105.06829     -16.562204    
  12315000   301.81394     -2097.2812      624.48528     -123.3209      -5.3417236    
  12320000   294.51896     -2053.5492      612.69112     -124.00051     -17.981624    
  12325000   301.5443      -2052.4326      659.45321     -44.709929     -6.8052016    
  12330000   301.9498      -2047.6702      639.00963     -58.578092      0.9912627    
  12335000   304.65663     -2042.9612      622.915       -57.860838      4.4338198    
  12340000   304.01731     -2033.551       594.10824     -80.115981      23.625887    
  12345000   289.01956     -2044.7834      604.16397     -148.35081     -6.485363     
  12350000   310.65777     -2026.0044      593.3503      -43.636417      5.9004119    
  12355000   297.8424      -2055.5915      602.60455     -121.26947      10.499437    
  12360000   305.49013     -2059.8902      625.21459     -68.763572      13.186627    
  12365000   286.60571     -2078.4263      588.70073     -208.24983      4.32777      
  12370000   296.45749     -2076.6555      591.94458     -159.18573      15.145783    
  12375000   302.55805     -2057.2526      606.44685     -98.003616     -11.643016    
  12380000   297.64268     -2059.321       635.3701      -93.12652       3.7270011    
  12385000   307.36012     -2072.2219      647.0502      -50.898551      13.464831    
  12390000   302.59017     -2060.6499      630.56061     -77.143522     -3.8824421    
  12395000   303.86611     -2060.756       600.49303     -101.61223      16.266163    
  12400000   299.64153     -2044.8693      597.70971     -107.39781      1.0226588    
  12405000   307.73861     -2047.4469      651.02831     -20.453099      8.7592453    
  12410000   287.94046     -2046.1515      625.17575     -133.53206      23.204092    
  12415000   295.03788     -2028.1141      595.14887     -113.7874       2.9104802    
  12420000   297.51224     -2040.5954      621.77982     -88.574338     -26.252917    
  12425000   293.53978     -2050.5003      659.84701     -78.173809     -21.906357    
  12430000   301.22365     -2047.5003      609.60205     -91.062547      10.513598    
  12435000   295.56416     -2081.8442      631.12377     -129.18948      16.880294    
  12440000   301.77308     -2073.7684      561.81503     -162.66099      1.8528943    
  12445000   301.7853      -2035.5055      626.30696     -59.851563     -8.1131877    
  12450000   298.94086     -2047.4218      590.66683     -120.12612     -25.962172    
  12455000   297.58593     -2061.8267      623.50166     -107.75434      5.9695115    
  12460000   298.41824     -2032.1532      608.66961     -89.191423      24.251808    
  12465000   294.18188     -2053.7736      636.94422     -101.47894      4.8540644    
  12470000   297.89932     -2066.3287      618.00216     -116.35458     -14.725007    
  12475000   307.72819     -2061.8735      605.52294     -80.431703     -3.6504349    
  12480000   294.26886     -2027.6124      643.3133      -68.559716      2.9605701    
  12485000   303.25697     -2061.1022      616.07673     -89.098341     -1.5547687    
  12490000   304.20747     -2062.5746      608.3817      -94.015923     -1.756089     
  12495000   300.71128     -2072.6393      624.64095     -103.45354     -11.641514    
  12500000   306.18143     -2079.5944      603.1682      -107.42318      8.4940771    
  12505000   297.79899     -2050.1063      622.88188     -95.701116      7.3432262    
  12510000   304.69001     -2061.4271      597.78423     -101.30834      15.877026    
  12515000   311.09792     -2039.4428      612.92493     -35.532131     -7.6998321    
  12520000   298.74946     -2065.7255      609.65105     -120.30134     -1.5045878    
  12525000   297.76221     -2035.7824      620.52532     -83.898242     -2.7602362    
  12530000   307.49211     -2032.5188      615.17007     -42.485357     -6.871678     
  12535000   312.54844     -2060.2607      600.19759     -62.591789      11.812183    
  12540000   302.90189     -2037.7864      586.26491     -97.181994      12.220467    
  12545000   303.52229     -2046.7214      615.81276     -73.795219      9.4598989    
  12550000   290.87359     -2038.3408      618.6586      -119.12388     -0.97455635   
  12555000   297.72116     -2044.8081      615.91713     -97.715622      14.416816    
  12560000   296.4264      -2046.1388      609.24047     -111.51211     -12.709715    
  12565000   294.20736     -2015.2724      582.43865     -117.36933      16.343626    
  12570000   308.78963     -2043.6332      621.91998     -41.048405      15.11005     
  12575000   293.38402     -2045.0477      631.75208     -101.51262     -0.3392168    
  12580000   300.34554     -2064.2979      589.98251     -131.40591     -25.677862    
  12585000   309.88993     -2047.5642      566.92657     -95.053094     -9.0997594    
  12590000   308.46951     -2034.1202      604.04381     -50.842838      9.4991983    
  12595000   296.03126     -2043.5023      612.31364     -107.56922      20.796837    
  12600000   297.57732     -2032.5475      630.85291     -71.162459     -9.841613     
  12605000   293.90865     -2040.3426      588.38345     -137.83035     -6.7813203    
  12610000   286.83765     -2052.598       610.37817     -159.70705      7.0960478    
  12615000   307.34005     -2059.7871      602.04267     -83.560992     -9.1047381    
  12620000   299.81781     -2053.9599      640.92352     -72.4865        6.3489621    
  12625000   300.16439     -2046.3048      629.11063     -75.094616     -14.360323    
  12630000   306.58338     -2046.152       622.36085     -52.990854      0.71095406   
  12635000   304.13317     -2078.735       619.89419     -98.996013     -13.249509    
  12640000   302.33315     -2056.8994      624.91178     -80.191042      19.887233    
  12645000   297.23329     -2019.3233      593.47915     -96.850163     -5.114504     
  12650000   294.81764     -2055.073       584.47371     -152.40624      18.789111    
  12655000   287.75391     -2051.6145      631.81934     -133.18548     -10.769917    
  12660000   315.71328     -2052.8569      646.80819      5.573269      -0.74178919   
  12665000   302.77459     -2063.865       621.78567     -88.309017     -2.2977509    
  12670000   293.08785     -2074.282       586.42799     -177.39514     -7.9378977    
  12675000   315.52633     -2048.6681      631.5224      -6.3596357     -4.4001996    
  12680000   298.48923     -2077.5096      616.70658     -126.19345     -17.940724    
  12685000   304.32791     -2089.5036      644.37103     -84.417041      7.3197479    
  12690000   288.32301     -2043.8592      616.16158     -138.54344     -11.788172    
  12695000   298.86269     -2056.5271      604.03304     -116.21473     -3.6310757    
  12700000   294.38961     -2052.9726      615.39962     -121.29371      2.8093322    
  12705000   304.94343     -2030.7769      622.65873     -44.650508     -2.7268399    
  12710000   292.53011     -2034.5843      601.80677     -124.81244     -22.142856    
  12715000   308.07252     -2017.9916      632.5174      -8.0156571      5.0794221    
  12720000   303.45732     -1991.8141      597.92391     -37.067221      3.9227182    
  12725000   299.85162     -2017.0082      595.77133     -80.535772      0.30752198   
  12730000   299.1755      -2038.6556      624.26241     -76.715188     -4.0544035    
  12735000   298.63308     -2024.1345      638.8419      -50.039871     -0.54054441   
  12740000   295.62414     -2026.541       614.99789     -89.743985     -6.5516409    
  12745000   306.09978     -2008.2988      645.44507      5.7842118     -24.772368    
  12750000   293.92804     -2019.8602      614.36852     -91.276213      12.393055    
  12755000   298.41102     -2023.2915      646.62109     -42.410602      5.6617699    
  12760000   300.17838     -2015.1067      647.29967     -25.644907     -2.9219704    
  12765000   302.63804     -2048.1983      590.76271     -104.27577      14.118401    
  12770000   303.33744     -2030.8578      611.1854      -63.38548       8.9512577    
  12775000   299.76755     -2020.6465      629.9776      -50.343682     -11.42297     
  12780000   308.19124     -2001.6414      624.52392      0.87180728    -9.544602     
  12785000   317.35683     -2015.8775      630.40659      33.499771     -11.899103    
  12790000   297.62446     -2016.1145      577.28068     -108.09088      10.067723    
  12795000   297.84315     -2026.5393      618.02632     -76.792223     -18.300949    
  12800000   313.81088     -2034.9687      613.34631     -18.506419     -10.397875    
  12805000   299.24081     -2045.203       620.32193     -86.911059      11.69694     
  12810000   303.10739     -2024.9243      624.28752     -45.378416      1.5591459    
  12815000   294.87865     -2045.7152      634.79375     -92.455618     -8.7051223    
  12820000   315.70277     -2049.6589      596.08289     -42.00099      -3.4561713    
  12825000   293.55598     -2006.2228      617.73957     -75.931282      5.6233972    
  12830000   310.8026      -2032.5685      595.05687     -47.84635       0.49338411   
  12835000   302.3393      -2041.1352      611.44324     -77.867901      9.6491297    
  12840000   292.48044     -2059.3667      580.9797      -170.64403     -0.64515694   
  12845000   305.06052     -2068.3427      609.80789     -94.543662      1.3121185    
  12850000   303.71983     -2076.3206      634.51062     -83.813335      18.912702    
  12855000   304.52026     -2070.2717      615.94852     -92.74762       13.346053    
  12860000   298.17304     -2068.642       574.72752     -160.71868     -7.515233     
  12865000   309.58103     -2077.1162      621.76373     -71.149101      9.9439837    
  12870000   299.19627     -2079.2008      607.96619     -133.46376      13.140672    
  12875000   290.91209     -2093.6085      608.05624     -184.82174     -1.1939447    
  12880000   298.7702      -2073.4196      564.50736     -173.04643      10.160996    
  12885000   305.59596     -2084.6829      585.8985      -132.39912      13.784559    
  12890000   302.57515     -2061.2621      620.37699     -88.006524     -5.5019514    
  12895000   297.63773     -2079.2884      587.86566     -160.62046      18.968602    
  12900000   306.81301     -2070.6686      649.03562     -49.806032     -6.3549818    
  12905000   297.34046     -2085.1158      623.94256     -131.70008     -1.6665072    
  12910000   306.68807     -2086.6667      593.52849     -121.8699       5.8598748    
  12915000   307.2019      -2081.9194      632.74083     -75.6128        2.490062     
  12920000   304.97436     -2067.6454      616.22023     -87.819204      19.918433    
  12925000   290.34062     -2073.2641      623.39645     -151.69234     -6.8527521    
  12930000   297.81189     -2049.0307      591.30266     -126.14701     -8.7882173    
  12935000   300.30266     -2063.0898      607.72848     -112.64353     -5.5026135    
  12940000   299.998       -2070.5728      602.24609     -126.97112     -9.392588     
  12945000   299.53081     -2042.983       604.05926     -99.657003     -2.3157576    
  12950000   302.4322      -2049.2023      605.76472     -91.198162      21.89947     
  12955000   293.73227     -2056.6057      650.57748     -92.688046      4.0660569    
  12960000   305.34701     -2055.5014      610.07327     -80.155951     -0.068073964  
  12965000   296.42282     -2070.1915      607.09592     -137.72539      4.5711048    
  12970000   310.09555     -2073.6549      608.80605     -78.344914      0.88219453   
  12975000   302.83476     -2055.812       655.08375     -46.688919      6.019903     
  12980000   309.74827     -2045.9284      588.27266     -72.704566      0.28255883   
  12985000   297.10506     -2051.7525      633.07427     -90.257633      6.4144796    
  12990000   295.92098     -2066.771       586.28086     -157.36379     -6.7838215    
  12995000   307.39751     -2042.0934      616.16263     -51.490386     -6.6508975    
  13000000   295.91031     -2047.327       613.2807      -110.96766     -1.5370723    
  13005000   295.86839     -2055.7652      591.24432     -141.62972      9.5114752    
  13010000   300.02236     -2066.064       601.0692      -123.53028      9.1001133    
  13015000   294.56977     -2044.1059      603.67528     -123.34588     -6.9168145    
  13020000   303.0888      -2073.6849      592.56289     -125.94682     -0.83518554   
  13025000   300.78183     -2073.4442      599.2315      -129.35244      12.73861     
  13030000   297.14058     -2077.8864      624.24137     -125.06559     -2.5496999    
  13035000   305.47471     -2070.6117      624.9324      -79.836191     -22.896234    
  13040000   299.80606     -2082.9271      632.12638     -110.30339     -2.5432909    
  13045000   300.25862     -2089.4956      615.84971     -131.12503     -11.13204     
  13050000   297.60363     -2092.5948      634.00032     -127.94466      11.219501    
  13055000   293.35199     -2101.4277      618.44616     -171.34174     -7.5352335    
  13060000   300.96094     -2096.259       603.95717     -146.64074     -3.1984778    
  13065000   308.37159     -2092.5074      623.53233     -90.179318     -16.601985    
  13070000   300.5374      -2103.6931      622.92773     -136.99798      2.1013197    
  13075000   296.46721     -2146.4563      606.01759     -214.87         16.514257    
  13080000   306.65915     -2123.7411      611.94232     -140.65975      3.7034162    
  13085000   302.6222      -2140.3575      583.74079     -203.52775     -12.374278    
  13090000   303.26905     -2134.2119      615.99469     -162.23602      0.011279556  
  13095000   303.37399     -2120.0456      587.45954     -176.13568      15.461498    
  13100000   303.76437     -2134.2633      622.24515     -153.82232      0.91819959   
  13105000   302.28183     -2123.9503      604.97268     -167.41048      16.201367    
  13110000   301.46325     -2132.3578      621.20763     -163.24315      8.840929     
  13115000   301.68234     -2093.2193      602.16616     -142.16655      2.5756181    
  13120000   305.064       -2115.1991      623.12026     -128.07204      12.150774    
  13125000   307.86103     -2138.9602      594.22081     -168.22648      23.860465    
  13130000   296.9257      -2106.409       634.00378     -144.78662     -15.113668    
  13135000   295.31367     -2136.8959      612.49068     -203.99431     -4.5492245    
  13140000   303.15768     -2118.8654      625.6766      -137.70555      10.726471    
  13145000   294.50204     -2121.0688      589.6987      -214.5882      -15.367509    
  13150000   298.04091     -2107.8527      597.43914     -177.80855      24.474849    
  13155000   303.10489     -2115.6193      595.05159     -165.32058      7.0596362    
  13160000   302.80365     -2095.54        616.36077     -125.27904      1.0757543    
  13165000   297.46193     -2126.8939      618.73228     -178.1454      -7.8578096    
  13170000   307.07626     -2146.1378      614.26986     -158.86399      12.632811    
  13175000   301.92741     -2149.0765      586.52163     -212.57248      11.2692      
  13180000   290.61299     -2128.7927      620.09338     -209.30615     -4.3020464    
  13185000   297.30489     -2144.9707      609.81103     -205.84559      1.6840177    
  13190000   306.31937     -2107.0607      612.28564     -125.15525      4.0162914    
  13195000   308.10769     -2140.6405      607.37241     -155.65233     -2.1008011    
  13200000   307.97535     -2125.1577      604.6016      -143.53209      18.861493    
  13205000   293.18417     -2129.8198      594.68684     -224.24351      13.0161      
  13210000   295.53547     -2115.09        620.55495     -173.13246      1.4548675    
  13215000   294.60465     -2109.944       579.78944     -212.91383      25.010808    
  13220000   303.58534     -2125.3234      615.34154     -152.58651      9.755408     
  13225000   289.10478     -2110.2369      601.34514     -216.24215     -21.093399    
  13230000   300.5413      -2105.3317      616.9533      -144.5936      -7.5797704    
  13235000   300.07872     -2127.4462      613.41962     -172.31014      3.4184581    
  13240000   291.07001     -2133.6036      615.65846     -216.50853     -16.042294    
  13245000   311.26539     -2124.5353      595.48545     -137.31536     -17.907498    
  13250000   300.47899     -2089.201       603.81073     -141.88403     -12.84713     
  13255000   293.9197      -2085.2475      599.84357     -171.22578     -15.04337     
  13260000   302.32248     -2123.4306      641.85199     -129.82981     -4.4947423    
  13265000   305.68436     -2091.326       628.28186     -96.263621     -5.4036467    
  13270000   305.48047     -2095.0258      601.93461     -127.22229      2.5264195    
  13275000   307.45029     -2108.1717      604.60217     -128.89319      0.30583945   
  13280000   304.0312      -2106.6857      571.86016     -175.43666     -5.7347154    
  13285000   298.5822      -2103.9316      627.77395     -141.13245     -13.194752    
  13290000   295.64825     -2079.882       624.29024     -133.68485      22.879478    
  13295000   309.95017     -2092.0511      595.31448     -110.88269     -0.47332234   
  13300000   299.06265     -2110.3939      616.92156     -156.2989       26.734574    
  13305000   294.64988     -2089.5081      615.04339     -157.02168     -14.389923    
  13310000   299.06447     -2094.5585      581.80439     -175.57249     -16.173553    
  13315000   304.63238     -2086.1711      585.10856     -138.98568      1.1228998    
  13320000   296.55826     -2076.8467      587.65539     -163.21559      8.5493149    
  13325000   301.83425     -2090.4326      621.18872     -119.67805     -16.954052    
  13330000   299.04694     -2052.6838      635.68663     -79.893957      4.5540241    
  13335000   307.37556     -2065.0145      606.18227     -84.489983      7.6509268    
  13340000   300.41083     -2111.4857      620.53957     -147.74471      3.0002134    
  13345000   290.69312     -2072.8524      598.10768     -174.99324     -2.2120439    
  13350000   284.6511      -2086.3367      634.81117     -178.7892      -11.067437    
  13355000   297.07152     -2089.4416      580.17521     -180.99575     -1.6281722    
  13360000   301.99029     -2083.4009      615.85444     -117.28295     -2.832666     
  13365000   296.49087     -2076.998       602.44267     -148.88091     -10.805728    
  13370000   297.21349     -2097.0514      592.38473     -175.76122     -8.4629468    
  13375000   307.62104     -2055.5283      571.96762     -108.12083     -3.8600615    
  13380000   300.19172     -2069.5026      632.91804     -94.362844     -2.5442587    
  13385000   295.30814     -2075.0546      604.81526     -149.85308      5.8238604    
  13390000   311.20216     -2079.0663      601.62136     -85.993143      3.7070405    
  13395000   305.73758     -2064.4238      568.48008     -128.92528      13.454069    
  13400000   299.11172     -2051.4155      645.58192     -68.440691      2.6546121    
  13405000   302.31122     -2065.6886      587.66492     -126.32521     -1.4293467    
  13410000   299.57019     -2085.246       600.52625     -145.27704     -9.9535918    
  13415000   309.16237     -2094.5286      648.13084     -64.066284      3.194348     
  13420000   303.08416     -2100.8326      599.76849     -145.90972      8.2382501    
  13425000   301.88311     -2057.1095      660.17251     -47.15268      -1.0512992    
  13430000   293.98447     -2060.6889      652.92432     -93.296838      0.90282487   
  13435000   301.19567     -2073.2605      629.42188     -97.128001     -8.9659147    
  13440000   293.06204     -2082.3655      608.87931     -163.14275      8.2816921    
  13445000   292.08578     -2078.4902      584.32864     -188.18323      1.2230334    
  13450000   298.17494     -2095.2646      626.30357     -135.75674      11.195979    
  13455000   309.76945     -2092.644       618.21032     -89.387832      5.3078378    
  13460000   300.72224     -2085.2551      617.80292     -122.85835     -1.7074749    
  13465000   312.28498     -2094.4818      609.4495      -88.739002      0.73527564   
  13470000   296.08608     -2066.6171      620.25441     -122.49813      32.29396     
  13475000   305.51358     -2099.205       591.25377     -141.93432     -3.4471002    
  13480000   295.2826      -2109.4861      597.84905     -191.36506     -17.718876    
  13485000   291.83903     -2087.334       604.5347      -177.92422     -18.076582    
  13490000   309.30244     -2102.3268      646.97877     -72.390275      1.1169816    
  13495000   296.27982     -2082.6462      615.72831     -142.18707      14.783159    
  13500000   289.11787     -2110.6713      624.44604     -193.51712     -18.00232     
  13505000   291.36852     -2095.6848      603.3094      -189.60404      1.5790284    
  13510000   296.95342     -2143.2519      653.89295     -161.61629      18.092216    
  13515000   288.61772     -2155.012       603.18482     -261.35523      3.4238905    
  13520000   304.12323     -2169.9683      612.31958     -197.84833      0.5624578    
  13525000   291.40952     -2149.4596      588.57781     -257.92716      7.8362972    
  13530000   293.23467     -2168.553       588.42009     -269.01759     -20.298412    
  13535000   309.20666     -2167.5631      628.95043     -156.08319      3.8221491    
  13540000   299.09812     -2151.8749      603.41882     -211.12404      12.73959     
  13545000   294.03433     -2158.4423      596.28892     -247.46268     -1.9901254    
  13550000   302.06264     -2152.1734      607.92131     -193.66505      4.5224326    
  13555000   305.25647     -2138.5817      590.37176     -183.3426      -7.6281817    
  13560000   299.80216     -2135.3026      616.95643     -177.86627     -22.175748    
  13565000   308.51348     -2133.3677      621.12999     -132.80756      4.764164     
  13570000   296.70422     -2120.1018      613.8221      -179.6513       23.995167    
  13575000   307.95203     -2146.7626      606.48365     -163.35918     -1.8816621    
  13580000   293.20074     -2138.1818      608.83144     -218.38684      24.641482    
  13585000   307.25505     -2115.2436      614.58635     -126.85379     -22.757503    
  13590000   301.22402     -2137.3182      626.71313     -163.76771      0.25233969   
  13595000   299.99565     -2137.5329      631.12622     -165.06158      11.753059    
  13600000   300.98756     -2148.8909      632.40245     -170.70835     -0.23356973   
  13605000   297.86412     -2136.128       618.71268     -185.60082      0.70835092   
  13610000   291.40638     -2148.9138      636.24779     -209.72544     -1.7015537    
  13615000   299.28717     -2134.7603      603.90268     -192.68034     -5.9293998    
  13620000   306.59972     -2173.0093      638.47118     -163.66482      1.0712054    
  13625000   297.27968     -2156.1145      615.26143     -211.65169      3.0092119    
  13630000   292.80248     -2135.6714      618.9821      -207.50643      3.3228097    
  13635000   299.05726     -2158.0954      632.88349     -188.06259     -25.273631    
  13640000   306.36143     -2171.1937      624.33442     -177.05146     -13.400948    
  13645000   298.57055     -2135.2428      638.22622     -162.04342      1.4345485    
  13650000   294.2646      -2150.8178      586.02512     -249.07237      5.2791948    
  13655000   308.83766     -2138.5006      607.57688     -150.0441       4.7347553    
  13660000   305.06705     -2127.6023      626.30896     -137.27292      7.8281411    
  13665000   300.70082     -2160.2322      620.63416     -195.10002     -17.427999    
  13670000   299.4881      -2165.3537      619.66385     -206.61411      12.29207     
  13675000   292.29467     -2142.4318      607.35176     -228.16775     -15.431856    
  13680000   299.74308     -2144.7973      598.57578     -206.00573      12.456476    
  13685000   297.93725     -2140.1593      615.77957     -192.23821     -1.9682561    
  13690000   292.25882     -2129.8773      591.43736     -231.68794      46.108041    
  13695000   299.92412     -2163.083       604.81959     -217.23811     -14.887093    
  13700000   314.41737     -2142.4547      601.71719     -134.90985      8.8738547    
  13705000   299.6414      -2155.7522      619.55487     -196.43617     -7.3577221    
  13710000   305.67934     -2135.6884      609.8969      -159.03345     -19.319945    
  13715000   300.34681     -2137.4402      619.35016     -175.17484     -11.665135    
  13720000   294.86736     -2099.2715      617.3404      -163.51566     -26.448481    
  13725000   296.60217     -2120.3701      627.64397     -166.55402     -0.35137925   
  13730000   302.64318     -2126.6337      660.21971     -113.23127     -9.9455554    
  13735000   295.34552     -2144.9747      615.69857     -208.72276     -5.6138198    
  13740000   286.83577     -2124.6748      607.42519     -234.74516     -9.5984082    
  13745000   299.83122     -2115.6121      608.03606     -166.96623     -12.788245    
  13750000   304.61992     -2101.9504      604.10887     -135.82035     -5.17372      
  13755000   296.44462     -2110.0281      622.64961     -161.9108      -7.7559967    
  13760000   309.53588     -2100.6235      608.5558      -108.06621      1.4246308    
  13765000   299.80755     -2155.0698      605.2884      -209.27739      13.820485    
  13770000   311.65811     -2144.1435      624.24841     -126.40462     -7.3518876    
  13775000   299.40806     -2125.3339      615.77677     -170.83931      8.9817903    
  13780000   299.23811     -2145.7836      576.26428     -231.56135      12.445038    
  13785000   297.35183     -2106.2151      604.91585     -171.77525     -10.54387     
  13790000   293.64691     -2122.5691      592.30514     -217.30541      10.981157    
  13795000   300.42464     -2141.7711      591.19053     -207.31738     -4.2323647    
  13800000   301.45319     -2135.5399      608.42343     -179.25443      15.260987    
  13805000   309.93107     -2100.4587      614.7133      -99.976898      14.310403    
  13810000   302.4221      -2137.6757      615.57343     -169.90804      16.19868     
  13815000   284.49009     -2095.5229      588.70843     -234.79804     -12.686273    
  13820000   304.2924      -2116.2994      636.59053     -119.15213      15.065148    
  13825000   290.10715     -2124.3217      613.15862     -214.03167      14.939729    
  13830000   308.43611     -2113.3187      641.41432     -92.820171      8.3180201    
  13835000   299.90749     -2101.8498      608.03831     -152.86057     -4.1905518    
  13840000   313.01522     -2112.5385      648.90629     -64.073871      3.5837117    
  13845000   295.55488     -2097.3293      592.0119      -183.82789      9.128133     
  13850000   298.09272     -2081.559       631.78392     -116.93847      11.03714     
  13855000   289.51207     -2080.4144      604.37189     -181.57173      16.411446    
  13860000   307.0939      -2086.1546      616.34574     -96.725925      4.0103589    
  13865000   302.11106     -2102.149       639.41932     -111.92612     -12.973117    
  13870000   299.78172     -2083.9963      597.98396     -145.6238      -17.379313    
  13875000   305.98557     -2092.6129      602.54241     -121.94315      10.241496    
  13880000   300.17058     -2104.0957      618.63516     -143.33329      21.543582    
  13885000   305.08284     -2114.7228      592.21212     -158.41966      19.500448    
  13890000   292.21189     -2089.7891      643.83319     -139.41369      7.0264677    
  13895000   308.11674     -2085.2937      604.61049     -103.02704      2.4521139    
  13900000   297.99865     -2099.3381      618.16666     -148.75535     -5.843625     
  13905000   286.9305      -2119.1383      601.13858     -235.07176     -22.604979    
  13910000   307.906       -2124.5641      604.02151     -143.8286      -12.663192    
  13915000   301.44483     -2109.4291      629.20123     -132.40321     -24.339708    
  13920000   304.66869     -2113.8085      577.20711     -174.36211      0.79718461   
  13925000   303.39307     -2120.9215      588.48218     -175.90367      11.21092     
  13930000   298.65918     -2096.1217      590.04885     -170.70342     -10.692383    
  13935000   306.15532     -2143.8525      626.32799     -148.63828      14.93627     
  13940000   302.1511      -2131.1803      629.93641     -150.26139      0.58520647   
  13945000   300.08375     -2136.8726      608.78158     -186.35198     -3.9233564    
  13950000   302.31313     -2142.9901      606.10643     -185.1767      -2.5493647    
  13955000   311.32705     -2093.7373      565.42363     -136.30347     -15.50452     
  13960000   290.35377     -2148.5197      608.99305     -241.29252      14.125622    
  13965000   305.58474     -2147.6038      604.36055     -176.90813      5.7627665    
  13970000   305.16659     -2125.7213      606.61298     -154.64286      4.6243941    
  13975000   303.34437     -2141.3526      620.74856     -164.28609      6.7425645    
  13980000   286.20184     -2144.8925      648.48879     -216.73377     -1.9128159    
  13985000   294.01079     -2139.3571      613.65712     -211.11449     -16.488872    
  13990000   304.71978     -2097.2527      596.58291     -138.20215     -2.2081529    
  13995000   297.27199     -2161.1179      609.82402     -222.12688     -13.516231    
  14000000   303.82109     -2157.5745      654.34023     -144.78489     -6.5565012    
  14005000   307.52637     -2162.0303      586.27747     -200.7363      -18.444819    
  14010000   299.73485     -2132.5326      599.80565     -192.54799      25.167999    
  14015000   294.96917     -2140.5604      605.5924      -216.09741      4.4707704    
  14020000   298.48281     -2166.1606      590.35805     -241.2217       9.7784682    
  14025000   305.31825     -2164.1619      614.7747      -184.24362      5.6909675    
  14030000   292.59947     -2168.6717      597.26208     -263.13444     -13.832998    
  14035000   312.32285     -2186.5647      642.25783     -147.84428      15.56684     
  14040000   301.80573     -2177.3236      594.08613     -233.79913     -9.7354234    
  14045000   291.90984     -2188.4225      591.22792     -292.00289     -21.247966    
  14050000   278.48581     -2196.5032      618.97489     -332.35841     -5.4675495    
  14055000   289.57593     -2189.1309      605.37596     -288.99869      14.562133    
  14060000   301.85616     -2159.7618      621.11658     -188.98137      22.579334    
  14065000   293.07297     -2160.6873      613.50651     -236.78848      15.590648    
  14070000   302.28199     -2158.8684      587.5579      -219.74273      16.659331    
  14075000   300.29795     -2149.0986      589.49435     -216.90752      3.0050179    
  14080000   297.46328     -2179.1039      586.30013     -262.78152      6.1170945    
  14085000   295.91756     -2160.0239      597.45975     -239.4531      -10.737278    
  14090000   307.47772     -2179.6416      597.06701     -207.77561     -15.097881    
  14095000   296.8683      -2184.0595      599.18885     -257.50865     -7.4310358    
  14100000   297.54071     -2183.1615      625.65129     -227.14167     -7.3401702    
  14105000   294.03934     -2140.4902      650.62965     -175.14746     -11.410401    
  14110000   299.78299     -2163.3356      607.30039     -215.64104     -12.253727    
  14115000   308.5523      -2168.8065      592.38727     -196.81558      20.191763    
  14120000   310.43344     -2188.6154      641.72302     -158.87765      0.12377514   
  14125000   304.03313     -2182.8439      597.45251     -225.99393      20.658485    
  14130000   297.78421     -2180.3347      586.0156      -262.86181     -8.5530888    
  14135000   300.83617     -2175.5617      596.25379     -234.20474      15.861076    
  14140000   304.25073     -2160.2668      580.29332     -219.60304      34.312732    
  14145000   296.6585      -2159.1255      623.43116     -209.27038     -16.071361    
  14150000   304.14208     -2156.7439      647.33186     -149.5274      -10.361522    
  14155000   302.04347     -2165.1359      634.14444     -180.49018     -6.4042365    
  14160000   294.79377     -2141.5344      611.45532     -211.99272      10.069612    
  14165000   289.64198     -2156.0457      626.30523     -234.68891     -1.1623441    
  14170000   298.38364     -2145.845       608.89187     -202.81569      10.871112    
  14175000   307.04829     -2148.1617      587.4928      -187.7899      -9.0861895    
  14180000   305.25679     -2151.2629      608.84888     -177.54521      4.0281589    
  14185000   299.58676     -2145.6709      625.32356     -180.83048      13.420292    
  14190000   284.38199     -2165.7698      611.4263      -282.81046     -34.392411    
  14195000   310.17799     -2182.3534      588.998       -206.48294      17.174937    
  14200000   292.53558     -2155.303       642.36994     -204.94358     -17.992108    
  14205000   304.42086     -2158.107       626.39264     -170.58325     -0.54895642   
  14210000   300.79182     -2207.062       593.12944     -269.02763     -8.487334     
  14215000   301.02412     -2162.7111      620.54485     -196.22263      0.28268458   
  14220000   293.89165     -2152.2409      595.10506     -243.083        5.6954958    
  14225000   301.64711     -2158.0181      610.78529     -198.50373     -12.322837    
  14230000   298.56392     -2118.9235      638.61441     -145.36562      28.515283    
  14235000   301.38425     -2180.4902      606.9323      -226.00402     -5.4045723    
  14240000   295.20665     -2175.9314      599.62424     -256.37474     -12.523593    
  14245000   313.6805      -2136.5855      593.9662      -140.08636     -7.2370041    
  14250000   302.67115     -2130.1499      624.35475     -152.48731      1.9870171    
  14255000   301.37125     -2135.8971      622.16953     -166.23193     -5.4546351    
  14260000   300.9737      -2098.8046      632.91322     -120.17318     -3.3716184    
  14265000   317.55383     -2112.4937      613.6257      -79.016538     -30.026527    
  14270000   290.82052     -2111.9534      611.13028     -200.502       -10.680172    
  14275000   301.00016     -2137.9486      613.69882     -178.41335     -0.87290555   
  14280000   296.95272     -2125.515       602.15419     -195.62133      9.2358469    
  14285000   302.35688     -2117.4643      641.75193     -123.80978      0.8942689    
  14290000   296.3721      -2148.0405      598.16436     -224.73272      7.0449281    
  14295000   315.74362     -2152.1124      599.00789     -141.34687      0.14020458   
  14300000   301.74821     -2166.8229      608.55464     -209.08706      17.33841     
  14305000   302.81826     -2162.2813      607.45362     -200.8621       15.994887    
  14310000   291.58754     -2162.9454      592.77907     -266.41572      2.3350971    
  14315000   297.06701     -2170.7442      603.98751     -238.5062       17.955699    
  14320000   297.2677      -2153.6924      596.07599     -228.4686       1.2764453    
  14325000   294.8441      -2176.2209      600.63673     -257.27276      2.2635194    
  14330000   297.08974     -2180.2723      621.1051      -230.81513      0.59803712   
  14335000   306.81421     -2174.0191      577.60936     -224.57748     -7.4188014    
  14340000   295.90678     -2159.5211      601.39955     -235.05873     -19.997115    
  14345000   303.9748      -2183.5179      601.73664     -222.6446      -11.366637    
  14350000   300.74978     -2186.7332      614.52971     -227.4865      -3.5045983    
  14355000   283.76171     -2188.147       556.20939     -363.17794      4.9983043    
  14360000   300.19867     -2196.3062      639.00885     -215.04451      8.9457629    
  14365000   291.87745     -2194.9829      602.78584     -287.15025      6.8745202    
  14370000   297.14497     -2188.9757      602.82834     -257.54831     -11.115656    
  14375000   297.22839     -2202.3739      638.09999     -235.30184     -3.1273605    
  14380000   300.64751     -2179.3265      600.64838     -234.41845     -8.8653233    
  14385000   295.59226     -2184.3799      598.77212     -263.95124     -17.515594    
  14390000   293.63355     -2175.7988      575.46382     -287.43621     -1.2173025    
  14395000   292.96424     -2191.3139      617.8686      -263.53914      13.741405    
  14400000   292.21332     -2213.4644      617.24893     -289.66689     -5.6486317    
  14405000   297.20334     -2196.4346      627.63713     -239.93737     -4.6918695    
  14410000   305.70225     -2189.6591      613.49535     -209.30331      2.2768545    
  14415000   285.30393     -2219.6644      643.83955     -300.16957      7.8803684    
  14420000   313.16732     -2206.1963      604.57078     -201.38703     -13.573092    
  14425000   300.98578     -2209.4062      604.60948     -259.02453     -11.886497    
  14430000   300.06951     -2160.1223      604.18145     -214.26555      8.3547889    
  14435000   305.3328      -2195.5732      616.44822     -213.91638     -6.8654042    
  14440000   289.95066     -2184.1983      650.30954     -237.45696     -13.331236    
  14445000   299.502       -2193.1982      615.83259     -238.22775      20.134801    
  14450000   307.4348      -2169.6749      625.05131     -170.01648      24.888971    
  14455000   295.06424     -2177.0812      623.13857     -234.64698     -16.132947    
  14460000   291.51836     -2186.7344      616.33265     -266.96042      18.868382    
  14465000   297.83807     -2177.2418      611.51594     -234.02777      7.9106731    
  14470000   300.70795     -2194.4564      620.71416     -229.21229      16.616402    
  14475000   298.31328     -2178.5761      618.78203     -225.97127     -5.9775403    
  14480000   302.69242     -2209.1001      610.72671     -244.97047      3.1659263    
  14485000   303.37497     -2201.8664      579.01783     -266.39387     -5.3961317    
  14490000   307.91988     -2213.5582      631.56902     -205.21314      10.857023    
  14495000   306.6639      -2213.704       615.23929     -227.3045      -4.0810632    
  14500000   301.69905     -2204.088       600.77703     -254.34963      3.7019953    
  14505000   297.46514     -2213.6426      610.23288     -273.37913      2.4396988    
  14510000   302.68622     -2205.2778      638.94492     -212.95767     -0.4635771    
  14515000   305.72422     -2205.4358      636.47417     -202.00287     -10.128066    
  14520000   300.33976     -2185.6108      605.31239     -237.41473     -13.412277    
  14525000   299.61912     -2178.9229      583.57511     -255.68632     -4.3698632    
  14530000   298.787       -2209.7408      606.16304     -267.6368      -4.3697938    
  14535000   298.34007     -2153.9923      638.62011     -181.42959      5.954635     
  14540000   305.67423     -2183.3483      616.95722     -199.65589     -8.0855539    
  14545000   292.38854     -2188.6455      595.55732     -285.75616      0.11032792   
  14550000   302.70828     -2225.775       580.72162     -291.57955      3.7264082    
  14555000   300.52548     -2190.1998      610.31781     -236.16788      5.0646534    
  14560000   302.32176     -2197.7763      558.63305     -287.39767     -6.2789454    
  14565000   286.88998     -2184.5827      636.62316     -265.21277     -12.314238    
  14570000   302.68896     -2187.4653      618.22202     -215.85589      3.3619999    
  14575000   299.82776     -2201.1286      589.59936     -270.93482      18.609279    
  14580000   316.04013     -2208.1719      628.98281     -166.10572      8.3546602    
  14585000   301.51739     -2181.0149      628.85544     -204.01041     -0.48079702   
  14590000   300.81097     -2196.2634      594.19698     -257.07592     -0.34861586   
  14595000   308.20064     -2177.4046      601.83349     -197.53975      13.926453    
  14600000   299.98652     -2187.1398      595.13478     -250.70078     -2.414142     
  14605000   291.7758      -2183.1427      638.76606     -239.78433     -9.1928701    
  14610000   298.97627     -2215.0808      617.45905     -260.83454      5.272458     
  14615000   298.33857     -2196.0961      605.55026     -256.60991      14.758678    
  14620000   304.63405     -2202.3719      603.9847      -236.30284      11.355248    
  14625000   309.92393     -2206.8779      590.02017     -231.12117      11.144868    
  14630000   298.38152     -2209.8308      630.99091     -244.71191     -13.199471    
  14635000   299.21497     -2214.0928      613.84986     -262.38845     -13.8729      
  14640000   297.31642     -2220.4624      619.5067      -271.59006     -11.141685    
  14645000   307.89808     -2204.011       588.83739     -238.49504     -29.666543    
  14650000   302.41305     -2196.9819      609.07053     -235.75757      5.0821032    
  14655000   284.31504     -2205.8268      616.99788     -317.59528      19.09334     
  14660000   306.3995      -2205.0812      601.99442     -233.10872      0.69079883   
  14665000   302.12515     -2175.9076      624.96443     -200.07666     -10.935787    
  14670000   305.36608     -2189.5701      593.387       -230.82567     -2.5187096    
  14675000   289.92298     -2205.0135      615.5656      -293.13993     -15.501886    
  14680000   305.3718      -2200.1211      581.65165     -253.08649      7.2597122    
  14685000   289.61298     -2191.9486      627.60389     -269.42277      4.0298305    
  14690000   293.37734     -2208.3426      590.88021     -305.70922      4.9028194    
  14695000   299.47121     -2229.2958      566.75796     -323.53763      20.119813    
  14700000   301.10105     -2212.3342      584.92544     -281.12123      5.6110545    
  14705000   303.88862     -2224.7776      619.20657     -246.81965      0.90218879   
  14710000   306.39812     -2185.498       636.09976     -179.42628      4.678376     
  14715000   303.93053     -2201.9192      598.14789     -244.83251     -2.6558147    
  14720000   290.86733     -2203.1095      629.24461     -273.33453     -11.106059    
  14725000   299.26156     -2224.1455      588.0152      -298.06752      15.839338    
  14730000   295.23376     -2217.1296      602.84291     -294.23304      8.4303654    
  14735000   298.61234     -2202.8941      632.40035     -235.33371      13.66094     
  14740000   287.71708     -2188.7207      584.90078     -317.375        13.6983      
  14745000   304.37397     -2184.0381      601.23417     -221.88242      1.6819189    
  14750000   289.76055     -2189.9219      566.05273     -328.28737      18.073296    
  14755000   304.76602     -2206.823       602.27264     -241.8759       2.7935935    
  14760000   299.7867      -2187.328       577.01051     -269.90669     -0.0017450762 
  14765000   293.27203     -2216.2615      608.63102     -296.34815      9.6337956    
  14770000   295.43984     -2214.6294      643.40298     -250.25132     -0.7496842    
  14775000   294.64591     -2207.1871      620.57779     -269.18405      15.292967    
  14780000   296.99593     -2186.8402      645.58874     -213.31882     -4.1369695    
  14785000   296.23999     -2188.4769      634.70618     -229.218       -3.445333     
  14790000   294.52095     -2215.421       578.76018     -319.79432      25.422294    
  14795000   304.38595     -2215.168       609.78469     -244.4083       5.4958612    
  14800000   301.7103      -2208.2777      612.98799     -246.27806      2.9138332    
  14805000   303.37595     -2187.7371      595.62358     -235.65442      22.900782    
  14810000   300.35091     -2198.4279      613.75814     -241.73622     -0.181529     
  14815000   308.30474     -2224.7652      613.0962      -233.17218     -12.439156    
  14820000   301.2713      -2229.6443      610.71094     -271.88461      4.6307336    
  14825000   304.02021     -2203.3896      607.88078     -236.16904      16.28052     
  14830000   286.59818     -2217.6318      621.26023     -314.92952     -14.400072    
  14835000   295.34739     -2222.3365      606.48293     -295.29186     -5.1040521    
  14840000   301.42179     -2213.2636      602.18659     -263.35538      5.1895125    
  14845000   296.99773     -2215.1557      631.22954     -255.9854      -16.506715    
  14850000   299.89937     -2206.7166      606.03448     -259.76755      1.004441     
  14855000   291.73795     -2199.5285      596.80576     -298.29962     -21.156194    
  14860000   303.42198     -2218.7583      593.99573     -268.09759      18.286231    
  14865000   303.44167     -2201.2764      602.57579     -241.94763      1.959781     
  14870000   314.97672     -2198.6027      602.12207     -188.15201     -1.7038231    
  14875000   305.74929     -2213.8757      627.58656     -219.21828      18.843834    
  14880000   305.48011     -2212.2424      588.28889     -258.08621     -18.317809    
  14885000   300.48119     -2188.2459      616.59731     -228.13262     -5.5772179    
  14890000   304.17786     -2193.4133      622.7654      -210.60325     -12.662185    
  14895000   314.38869     -2190.8911      605.08791     -180.10377      13.834573    
  14900000   308.46716     -2175.0886      596.92199     -198.94364     -3.0823275    
  14905000   291.37584     -2193.1194      590.44582     -299.86956      3.7219752    
  14910000   301.70095     -2198.6493      657.288       -192.39151      22.424516    
  14915000   304.84956     -2204.8915      599.42984     -242.41368     -2.9669003    
  14920000   293.01147     -2194.1576      616.4391      -267.60122      17.264518    
  14925000   291.01859     -2168.0954      561.85479     -305.03389      21.060322    
  14930000   297.45964     -2181.7874      617.60358     -234.17783     -4.5429053    
  14935000   297.27351     -2198.9408      611.29591     -258.47107     -9.3600314    
  14940000   306.64308     -2183.1806      614.71979     -197.39359      9.617547     
  14945000   295.89505     -2185.5701      579.78784     -282.77183      26.69281     
  14950000   299.81398     -2190.3083      602.76064     -247.01486      10.860063    
  14955000   300.27782     -2179.5809      618.79833     -218.1758       4.2578972    
  14960000   295.62216     -2174.2222      597.63188     -254.80002     -24.597899    
  14965000   298.28433     -2195.0624      604.35927     -257.00973     -1.0145392    
  14970000   305.54865     -2186.6352      635.37823     -185.08327     -11.693279    
  14975000   297.22687     -2179.6414      605.94265     -244.7335      -7.5013904    
  14980000   293.83505     -2168.3115      580.8302      -273.68165     -4.4347776    
  14985000   305.36174     -2146.4016      629.54706     -151.51656      0.26250719   
  14990000   296.98585     -2144.8419      624.88999     -192.06431      9.3489819    
  14995000   304.26472     -2148.025       646.261       -141.33105      8.9501811    
  15000000   300.9072      -2152.02        606.67835     -199.92082      31.054308    
  15005000   292.03689     -2134.8502      621.09801     -207.99239      28.650319    
  15010000   298.04889     -2159.4052      603.27632     -223.4882      -26.48742     
  15015000   310.11004     -2129.1333      621.38647     -121.17811      3.9825082    
  15020000   290.4997      -2139.6143      639.19216     -201.5355      -14.04792     
  15025000   303.82247     -2144.2064      613.10728     -172.64356      9.8636249    
  15030000   298.33928     -2141.2608      632.33201     -174.98966      1.6099755    
  15035000   298.91162     -2141.7821      605.11817     -200.16583     -1.2575904    
  15040000   309.79533     -2155.0911      631.58176     -138.34775     -13.565529    
  15045000   307.7342      -2182.3884      649.06272     -157.37991      9.022592     
  15050000   288.1813      -2192.1756      619.43072     -284.22431     -0.68982221   
  15055000   306.133       -2160.7062      627.72082     -164.19891     -8.7271292    
  15060000   297.05706     -2166.4527      631.32604     -206.92062     -11.502442    
  15065000   306.98952     -2168.1319      617.22312     -178.29262      1.5419807    
  15070000   303.14372     -2151.7512      588.92441     -207.40603     -15.521782    
  15075000   292.61284     -2130.5261      592.28604     -229.90515      14.602592    
  15080000   300.10232     -2153.3534      587.94055     -223.59081     -14.289736    
  15085000   298.77476     -2159.5663      602.40588     -221.27423      11.253124    
  15090000   306.85009     -2147.1897      587.19833     -187.99857     -0.70628304   
  15095000   309.20604     -2163.9296      565.86996     -215.53297      9.9741529    
  15100000   304.27122     -2136.4802      590.3729      -185.64519      12.877025    
  15105000   299.55098     -2144.2052      617.98072     -186.86768      11.603693    
  15110000   311.64897     -2161.1196      601.10863     -166.56136      6.3063624    
  15115000   295.93468     -2134.1969      634.4145      -176.59477      6.8784841    
  15120000   297.73142     -2133.6507      607.80539     -194.62407      11.112215    
  15125000   302.77318     -2118.1743      597.34222     -167.06804     -15.969004    
  15130000   306.61328     -2161.5014      635.14439     -155.42307     -19.929926    
  15135000   289.39642     -2141.7974      586.62566     -261.21812      5.3244863    
  15140000   309.55746     -2120.9416      613.23259     -123.611        2.0700957    
  15145000   306.94283     -2142.7373      603.25558     -167.07424     -20.222668    
  15150000   297.67772     -2165.0721      612.46551     -221.62547      12.423116    
  15155000   303.87943     -2151.5832      639.85106     -153.02183     -25.038333    
  15160000   295.87858     -2154.2792      611.51653     -219.82584     -9.7471829    
  15165000   300.53238     -2135.1773      592.28879     -199.14361     -6.8039397    
  15170000   306.27381     -2123.0546      628.17181     -125.4667      -25.860611    
  15175000   304.11612     -2117.6845      609.81812     -148.09787      10.474967    
  15180000   305.8477      -2129.0642      604.0219      -157.53144     -7.8418637    
  15185000   301.75473     -2124.1484      598.42541     -176.51267     -23.494412    
  15190000   303.39323     -2142.8929      616.66408     -169.69247     -16.290018    
  15195000   311.43834     -2133.6678      586.52403     -154.636        11.931694    
  15200000   294.26569     -2118.8476      627.08742     -176.03493     -21.016505    
  15205000   300.42857     -2140.5009      601.47639     -195.74379      13.349326    
  15210000   291.57685     -2158.1491      615.39144     -239.05482     -7.7576924    
  15215000   298.87295     -2122.0403      634.61983     -151.09519     -28.41446     
  15220000   305.8753      -2142.9326      625.57511     -149.72326     -0.22812728   
  15225000   302.69207     -2162.8359      596.54821     -212.88631      7.1798763    
  15230000   306.57212     -2173.0731      625.65683     -176.66638      1.9761406    
  15235000   299.48329     -2157.4758      602.95391     -215.46771      7.3118096    
  15240000   294.72366     -2163.3669      615.78265     -229.81136     -3.335187     
  15245000   298.56345     -2170.724       602.66353     -233.11908      4.3924247    
  15250000   292.13593     -2160.0523      618.76903     -235.08065     -5.1374674    
  15255000   304.1116      -2165.9436      627.29208     -178.90317      2.7350831    
  15260000   293.40289     -2170.4979      593.90564     -264.72482     -5.32263      
  15265000   295.88762     -2171.6314      559.11502     -289.53919     -12.84396     
  15270000   294.23491     -2133.8293      620.23729     -198.0044      -19.615012    
  15275000   303.39374     -2146.0945      606.26894     -183.28686      5.5006917    
  15280000   296.95827     -2158.5191      631.2912      -199.46361      4.8514754    
  15285000   300.46086     -2147.9481      638.86399     -165.659       -9.9241487    
  15290000   299.00784     -2154.7489      598.80716     -219.01336     -3.7807657    
  15295000   301.28343     -2179.5044      635.11782     -197.28355     -25.228969    
  15300000   299.74335     -2164.0498      595.21388     -228.61896     -13.177806    
  15305000   296.55626     -2168.2952      627.62677     -214.70155      6.4810563    
  15310000   290.93987     -2146.7611      623.60856     -222.29778      7.8427733    
  15315000   283.80075     -2156.3495      602.28598     -285.12935      10.947315    
  15320000   299.52032     -2148.3075      603.56258     -205.52515     -2.1901009    
  15325000   301.71904     -2165.1474      635.09805     -180.99861      5.0462035    
  15330000   293.47265     -2128.1444      579.43509     -236.52998     -1.3898575    
  15335000   291.2197      -2120.6947      641.41706     -177.17174     -20.764938    
  15340000   308.41897     -2135.0747      587.04668     -169.02046     -6.6465865    
  15345000   301.08619     -2139.3819      631.54537     -161.61541      19.148083    
  15350000   297.38241     -2149.1056      628.35547     -191.08938      5.4284117    
  15355000   305.44449     -2135.8751      605.431       -164.73609     -12.570907    
  15360000   288.95819     -2132.5668      616.30536     -224.26718     -12.938573    
  15365000   304.62143     -2141.4909      602.00907     -177.45389      0.51632855   
  15370000   282.1243      -2125.1567      617.38586     -246.33239     -8.5962197    
  15375000   302.39188     -2138.4548      606.46272     -179.93298      6.1364447    
  15380000   301.6458      -2130.8229      604.24644     -177.85324      1.9066824    
  15385000   288.9748      -2130.0634      596.3982      -241.59671     -4.5445961    
  15390000   295.24994     -2141.8537      641.07034     -180.65736     -21.737067    
  15395000   308.18486     -2125.5339      608.49311     -139.07996      0.46146683   
  15400000   294.63243     -2134.9579      581.78143     -235.81154      5.4091129    
  15405000   304.43351     -2121.5754      582.10788     -178.27982      11.763626    
  15410000   300.42532     -2132.8917      657.09791     -132.52755     -13.752863    
  15415000   303.32692     -2153.0956      609.92749     -186.92818     -4.974094     
  15420000   299.92894     -2157.9772      640.57507     -176.35537      7.3503892    
  15425000   296.01286     -2162.5845      628.63761     -210.40971     -7.3003057    
  15430000   306.38287     -2150.5282      609.56259     -171.06192     -13.028729    
  15435000   298.17973     -2152.63        603.0877      -216.31656      7.1042368    
  15440000   297.94594     -2162.6607      569.7831      -260.69722      8.9032794    
  15445000   298.03967     -2153.2665      611.92253     -208.74445      18.983607    
  15450000   315.16817     -2161.0388      627.51542     -124.33874      2.7800468    
  15455000   297.40096     -2145.3276      603.93551     -211.64839      13.506749    
  15460000   306.71573     -2145.9764      590.70984     -183.87454     -2.8949982    
  15465000   301.87984     -2144.565       619.89543     -174.89984      2.2614672    
  15470000   301.01904     -2141.5673      660.97162     -134.67479     -14.518154    
  15475000   295.46089     -2123.5214      611.1865      -191.26572      5.4187284    
  15480000   291.86741     -2149.1586      616.17092     -227.98567     -13.400931    
  15485000   301.00816     -2117.9711      615.67406     -156.42483     -6.5394713    
  15490000   296.62353     -2159.9026      603.81064     -229.8244      -1.3720101    
  15495000   299.02848     -2140.4866      611.94721     -191.51871      18.477673    
  15500000   301.14047     -2134.9483      598.6143      -189.87022      20.256751    
  15505000   293.3276      -2152.3219      624.62508     -216.16602      1.6876639    
  15510000   291.62873     -2166.0394      607.40838     -254.69626     -5.5352018    
  15515000   305.73462     -2158.92        618.94899     -172.96573     -13.491162    
  15520000   297.24311     -2136.8207      605.10152     -202.68129     -9.5229872    
  15525000   302.85423     -2145.8568      647.98671     -143.74364     -2.5038096    
  15530000   288.30684     -2157.5455      635.14291     -233.32066      10.324444    
  15535000   291.89122     -2181.7256      614.50164     -262.11552     -0.94159681   
  15540000   302.22165     -2189.2117      612.80316     -225.11051      4.6314404    
  15545000   294.36825     -2172.9862      639.14998     -217.65245      0.13301787   
  15550000   309.96418     -2178.661       618.25807     -174.48637      0.041554629  
  15555000   306.03582     -2166.4794      577.38674     -220.7407       21.155041    
  15560000   291.63862     -2182.7582      588.83061     -289.94862     -17.537737    
  15565000   294.34467     -2179.1281      628.80825     -234.24155     -16.170457    
  15570000   297.63552     -2168.8326      623.86803     -214.17215     -6.6326175    
  15575000   302.1632      -2157.1986      612.47732     -193.68461      14.618408    
  15580000   303.71378     -2152.8604      620.48631     -174.40443     -25.73409     
  15585000   298.67147     -2165.226       637.83802     -191.9636      -6.1119133    
  15590000   297.66058     -2130.8622      628.43408     -171.5236       2.2868215    
  15595000   297.56397     -2124.6887      629.14864     -165.06754      35.803094    
  15600000   299.9522      -2123.7604      606.14337     -176.46622     -12.919764    
  15605000   304.51588     -2134.8252      614.46573     -158.80352      0.7660144    
  15610000   295.38632     -2156.7344      616.79025     -219.20834     -1.5494198    
  15615000   304.21403     -2155.6562      639.02641     -156.42344      1.5680951    
  15620000   300.41238     -2184.9972      610.10658     -231.68227      13.552408    
  15625000   309.12803     -2191.987       609.28708     -200.52202      5.0477215    
  15630000   298.99334     -2200.5312      618.14867     -245.51899     -4.5248749    
  15635000   300.05435     -2194.6329      608.35382     -244.67151      2.8393259    
  15640000   307.33421     -2177.9271      595.12233     -208.6474      -11.123735    
  15645000   297.55704     -2192.8263      610.64639     -251.73836     -1.349165     
  15650000   299.41945     -2201.1306      644.89726     -217.46452      4.2826978    
  15655000   301.17128     -2214.4401      639.31911     -228.51944      1.3020801    
  15660000   291.15655     -2229.8978      618.90199     -309.17226     -22.786899    
  15665000   298.06778     -2257.756       566.58961     -358.4412      -0.94211888   
  15670000   311.68282     -2214.6542      611.7481      -209.30522      10.078147    
  15675000   293.79305     -2212.194       642.76217     -255.81991      30.241917    
  15680000   300.87001     -2193.0797      613.58593     -234.2392       14.991843    
  15685000   291.67823     -2215.7616      607.43038     -304.17511     -0.87601423   
  15690000   296.6143      -2224.188       597.93938     -300.02228     -17.251423    
  15695000   306.49426     -2228.1731      639.5942      -218.17716      22.963435    
  15700000   294.62603     -2202.8967      604.69296     -280.8674       3.7404861    
  15705000   310.37146     -2223.0812      641.81396     -193.52974     -13.45327     
  15710000   294.21639     -2216.9648      639.62912     -261.83089      14.402526    
  15715000   300.12288     -2200.8157      617.67035     -241.23143      2.8053229    
  15720000   301.38823     -2226.3857      611.74788     -267.0662      -1.5234218    
  15725000   308.29042     -2197.9942      591.99333     -227.56809     -2.0159955    
  15730000   298.83845     -2213.3358      582.85806     -294.30679      32.793128    
  15735000   298.07305     -2207.1721      589.51884     -284.90454      9.1939814    
  15740000   296.55696     -2226.6668      623.5504      -277.14649      1.3726593    
  15745000   293.72802     -2220.2949      600.75238     -306.22139      10.355277    
  15750000   303.50476     -2230.5687      626.21431     -247.3194      -6.7387946    
  15755000   295.65418     -2195.811       596.13494     -277.7426       4.4437533    
  15760000   296.81857     -2164.1348      608.58596     -228.40918     -13.623593    
  15765000   313.55568     -2191.9906      591.23399     -198.78171     -5.7003727    
  15770000   301.30479     -2193.7269      615.94155     -230.58679      6.739324     
  15775000   306.6164      -2193.395       630.75758     -191.68958      28.896094    
  15780000   300.90001     -2199.759       624.38973     -229.98057     -7.1122877    
  15785000   298.70003     -2170.6258      636.49039     -198.58336     -6.5041298    
  15790000   298.13913     -2195.781       616.38378     -246.35303      3.5972535    
  15795000   297.59112     -2198.0468      589.08245     -278.37049     -8.3790269    
  15800000   294.42406     -2207.8347      597.1704      -294.23099      5.2047288    
  15805000   303.81393     -2197.0538      600.24123     -238.39517      10.678673    
  15810000   306.86055     -2199.037       572.25511     -254.74237      4.0842468    
  15815000   303.54729     -2166.4181      643.61418     -165.57874     -12.353158    
  15820000   306.95172     -2180.4594      601.81283     -206.19943      5.8801369    
  15825000   307.61953     -2206.9621      646.40743     -185.12153     -23.292892    
  15830000   304.23012     -2215.2733      628.8544      -226.14058      4.2053738    
  15835000   306.02837     -2198.0016      574.29168     -255.39124      15.090085    
  15840000   297.30501     -2186.6853      603.54392     -253.82676     -2.9753511    
  15845000   294.08641     -2180.7461      618.33937     -247.48317      11.909713    
  15850000   305.12118     -2203.2683      562.19233     -276.81358      7.748271     
  15855000   299.14915     -2201.1674      629.61229     -233.99489     -1.3310968    
  15860000   297.12643     -2225.8746      575.5476      -321.8108       13.525783    
  15865000   301.42964     -2200.8173      606.19164     -246.86896     -25.132578    
  15870000   313.11047     -2192.762       624.3607      -168.41704     -13.468918    
  15875000   310.43402     -2191.6514      613.42731     -190.20677     -7.4072771    
  15880000   295.868       -2223.8143      590.82014     -310.10474      1.1881672    
  15885000   290.9735      -2214.2279      594.81059     -318.41218     -9.581512     
  15890000   298.21722     -2208.3751      614.04522     -260.93657      6.3802803    
  15895000   303.31465     -2203.1012      612.19011     -234.72606     -15.033741    
  15900000   305.87638     -2219.4204      598.07773     -253.70359     -13.135193    
  15905000   297.86209     -2221.3445      594.21539     -295.32368      9.4708128    
  15910000   304.97511     -2199.505       619.6404      -216.25527     -4.9970258    
  15915000   311.9004      -2187.7392      587.42899     -205.73641      10.953674    
  15920000   304.90379     -2209.8314      569.83701     -276.70396     -10.111297    
  15925000   293.86017     -2201.6453      571.08124     -316.65203      8.3860485    
  15930000   293.67752     -2194.8957      613.47842     -268.32197     -15.648828    
  15935000   298.52503     -2178.3186      611.53792     -232.01113      4.6795636    
  15940000   290.68178     -2208.9609      626.01469     -283.24547      4.3852669    
  15945000   299.09553     -2198.6352      641.06403     -220.2507      -2.38483      
  15950000   304.28086     -2188.0315      617.82831     -209.69798      5.1928952    
  15955000   300.28659     -2198.8279      641.66475     -214.51718     -11.826626    
  15960000   303.83303     -2177.7785      598.64939     -220.62633      16.884035    
  15965000   304.68283     -2169.3681      594.89414     -212.17147      18.859497    
  15970000   295.94917     -2200.8103      631.89911     -245.6588       17.727417    
  15975000   303.19189     -2165.0851      556.89589     -252.55307      8.1683958    
  15980000   291.7862      -2174.5254      617.45158     -252.43502     -5.3863929    
  15985000   289.77205     -2183.0321      602.78159     -284.61735     -12.833003    
  15990000   300.26617     -2169.1505      605.45197     -221.14391      21.147912    
  15995000   301.82721     -2172.0584      631.55029     -190.97371     -12.255113    
  16000000   301.08738     -2215.5401      606.6463      -262.66736      17.879194    
  16005000   299.1782      -2214.6729      574.70341     -302.27936      13.385833    
  16010000   312.71937     -2206.5262      592.69784     -215.59284      1.6546481    
  16015000   298.75386     -2185.549       586.27676     -263.4795      -6.4969005    
  16020000   309.44554     -2170.793       598.83263     -188.36287      14.681151    
  16025000   296.87776     -2144.4183      604.26391     -212.75004      12.804973    
  16030000   299.38153     -2163.044       628.64493     -195.79982     -1.0013666    
  16035000   298.50089     -2157.7803      612.62539     -210.49325      7.5072099    
  16040000   299.29876     -2155.9993      573.65225     -244.11789      17.067836    
  16045000   302.2603      -2170.7767      619.7911      -199.51479     -10.055853    
  16050000   315.05927     -2158.81        597.88675     -152.22549      13.986177    
  16055000   309.32411     -2155.2757      604.36977     -167.85137     -8.2539045    
  16060000   298.38039     -2163.1489      587.05802     -241.968        3.1617836    
  16065000   298.969       -2163.1718      639.54759     -186.86955     -8.0313323    
  16070000   288.69799     -2178.3758      609.54767     -277.99735     -15.1585      
  16075000   307.93743     -2171.5868      594.83982     -199.89251      11.0262      
  16080000   298.25246     -2196.3386      614.02517     -248.76255      13.786696    
  16085000   285.67145     -2175.0407      624.19611     -273.54611     -2.6837131    
  16090000   304.42545     -2204.6476      623.51028     -219.9857      -3.2457596    
  16095000   308.27583     -2193.4896      624.12932     -190.99274     -0.36217516   
  16100000   287.75254     -2179.5138      609.11562     -283.79469      9.5866228    
  16105000   306.98768     -2184.1399      598.06689     -213.46506     -15.116037    
  16110000   305.89656     -2177.1844      598.15675     -211.29832     -16.332362    
  16115000   301.97358     -2195.9415      609.06487     -236.68779     -23.913309    
  16120000   311.44703     -2202.7839      610.34564     -199.89155     -2.1424438    
  16125000   313.03525     -2183.026       577.62689     -205.75113     -4.2890942    
  16130000   297.20114     -2193.5953      588.96239     -275.78264     -2.3103001    
  16135000   303.95222     -2178.43        576.63533     -242.75895      10.768504    
  16140000   308.6514      -2197.0012      593.8898      -223.06465     -4.2340828    
  16145000   309.87031     -2173.0982      624.21302     -163.38834     -5.1436197    
  16150000   297.64605     -2171.9589      609.27187     -231.84753      1.6014292    
  16155000   292.69453     -2188.5286      625.11544     -254.713       -29.009242    
  16160000   292.86247     -2168.9192      632.355       -227.11317     -2.4223032    
  16165000   301.75291     -2142.5069      602.12339     -191.18136      6.5658011    
  16170000   320.92068     -2171.855       602.81289     -134.13673     -7.9570691    
  16175000   300.29073     -2150.0186      588.41796     -218.93618      1.7736158    
  16180000   302.37382     -2159.9195      627.17802     -180.76312      12.844736    
  16185000   299.30791     -2181.7686      601.78818     -241.71035     -17.297364    
  16190000   301.97942     -2128.2368      652.16549     -125.85637      3.4498401    
  16195000   298.24095     -2181.4608      594.54555     -253.41581     -11.671198    
  16200000   308.51795     -2171.9519      609.64827     -182.85357      26.737561    
  16205000   299.24828     -2174.2833      622.12922     -214.15065     -8.8404279    
  16210000   300.06198     -2190.174       605.10061     -243.43172     -5.6205663    
  16215000   303.16989     -2162.8967      619.10901     -188.24988      3.2303303    
  16220000   292.15989     -2141.8953      615.04038     -220.54518     -10.998078    
  16225000   316.30564     -2165.5893      609.74521     -141.57357      3.834778     
  16230000   300.4517      -2170.3957      590.6665      -236.34507      8.4914438    
  16235000   304.73323     -2144.7029      620.17073     -162.00434      3.7191794    
  16240000   303.55541     -2122.4527      598.97925     -166.21189     -2.1283625    
  16245000   289.94426     -2135.0441      601.89682     -236.74413      2.9555882    
  16250000   301.44424     -2144.8483      624.67945     -172.34681     -14.700964    
  16255000   292.77701     -2144.0093      621.71632     -213.22397      10.927758    
  16260000   294.10803     -2128.0001      631.73622     -181.24365      5.0519821    
  16265000   298.33308     -2127.9204      609.95644     -184.05255      34.048173    
  16270000   299.99843     -2132.6217      612.66479     -178.59943      25.352015    
  16275000   303.2014      -2092.7816      600.02026     -137.08267      11.720268    
  16280000   301.39472     -2145.1014      614.56413     -182.9366       4.8494382    
  16285000   286.14258     -2113.6985      603.32438     -230.96912      1.1133671    
  16290000   296.89149     -2118.2602      581.33249     -209.46194     -9.5915878    
  16295000   300.25693     -2112.3104      611.2347      -158.56238      7.2440258    
  16300000   291.68261     -2125.2621      590.50949     -230.57696     -3.7419758    
  16305000   297.39219     -2155.6349      617.14729     -208.78314     -3.7691106    
  16310000   299.28195     -2126.7409      630.87875     -157.70822     -21.950952    
  16315000   297.5648      -2146.5747      633.08031     -183.01823      1.1945446    
  16320000   304.38064     -2124.1482      641.81758     -121.37936     -8.3266104    
  16325000   306.78063     -2107.7982      603.91447     -132.20154      27.94133     
  16330000   303.53023     -2109.5972      621.40112     -131.04715      8.1786336    
  16335000   301.30393     -2127.5178      608.81989     -171.50323      11.797485    
  16340000   293.73899     -2117.1145      601.4518      -202.29253     -9.8301671    
  16345000   308.32309     -2107.5161      587.67608     -141.26116     -10.157962    
  16350000   305.80783     -2152.4678      597.6378      -187.49746      11.044186    
  16355000   292.49868     -2144.3818      621.67667     -214.88058     -8.3454294    
  16360000   306.5594      -2135.0219      580.06534     -184.26351     -9.869942     
  16365000   301.41267     -2139.2476      613.55926     -178.00743     -4.2734494    
  16370000   299.43166     -2129.3484      590.02648     -200.49855     -2.7969175    
  16375000   303.65858     -2160.3634      613.88393     -188.75663     -25.648699    
  16380000   306.2818      -2173.6992      594.52192     -209.7255      -12.545818    
  16385000   303.38986     -2153.5783      612.82855     -184.22844      5.4326636    
  16390000   302.39271     -2114.7953      600.57072     -162.16167      1.5219906    
  16395000   306.20311     -2138.9835      587.40196     -182.48158     -32.181668    
  16400000   289.65007     -2156.5227      588.99649     -272.43846     -16.439359    
  16405000   301.82757     -2175.652       578.78158     -247.33444      20.004858    
  16410000   297.64958     -2166.7309      607.57306     -228.30258     -4.3849492    
  16415000   303.5914      -2166.9795      635.11724     -174.43976      8.4473268    
  16420000   303.09149     -2179.6052      618.7812      -205.63681      24.414614    
  16425000   301.50182     -2161.7518      637.38705     -176.28524     -20.112733    
  16430000   298.63649     -2176.8011      600.97801     -240.55516     -13.28341     
  16435000   306.71281     -2178.5931      602.92567     -204.28844      4.4836868    
  16440000   298.51141     -2184.1391      596.10457     -253.32577      0.56993707   
  16445000   297.98545     -2166.5243      617.53654     -216.63074      3.2230137    
  16450000   296.07704     -2189.0678      629.26377     -235.9799      -20.169679    
  16455000   308.80068     -2186.2047      627.01989     -178.47052      0.10867616   
  16460000   282.97731     -2154.7798      604.05182     -285.47554     -17.992823    
  16465000   303.18289     -2171.2316      616.64847     -198.98729      3.8104531    
  16470000   315.53798     -2159.7391      615.61592     -133.28504     -12.960219    
  16475000   300.13869     -2167.4077      612.55406     -212.86899      5.9855001    
  16480000   301.81447     -2169.8359      608.66017     -211.69827     -6.6359736    
  16485000   299.77032     -2175.6097      606.21214     -229.05992     -6.6454307    
  16490000   307.58405     -2193.1658      605.6391      -212.25229     -2.7498483    
  16495000   293.66832     -2185.741       625.5049      -247.18185     -10.586392    
  16500000   284.24232     -2169.1981      609.5103      -288.77923      13.635974    
  16505000   300.44347     -2171.5599      609.00964     -219.2029      -7.5591365    
  16510000   300.885       -2185.0045      596.0657      -243.6172      -20.164161    
  16515000   302.00285     -2203.7552      591.52835     -261.90713     -11.966476    
  16520000   311.83442     -2176.5881      605.3503      -176.95901     -2.4931354    
  16525000   305.04316     -2186.2291      575.84854     -246.467       -7.2234606    
  16530000   298.11766     -2155.8929      593.25435     -229.69034      5.8229229    
  16535000   294.71726     -2156.9391      608.32086     -230.87401     -0.46291833   
  16540000   300.28406     -2181.1711      629.23233     -209.30414     -7.7678474    
  16545000   306.48242     -2169.7326      603.87042     -195.51331      4.833786     
  16550000   299.81284     -2170.8276      588.52021     -241.77966      1.4352956    
  16555000   307.85017     -2182.5274      608.53138     -197.5317      -4.9757216    
  16560000   310.25397     -2156.1174      614.1464      -154.75876      16.162063    
  16565000   302.80189     -2143.7178      608.01658     -181.80882     -1.2294321    
  16570000   314.51713     -2155.7823      629.3499      -120.15862     -0.17444503   
  16575000   309.01564     -2141.0172      629.77652     -129.56531     -6.7981151    
  16580000   291.72723     -2136.2722      612.52521     -219.37185     -13.244114    
  16585000   301.66126     -2163.3572      612.85101     -201.71384     -16.276135    
  16590000   298.02523     -2144.1689      611.59106     -200.04292      18.088774    
  16595000   304.87436     -2135.3724      581.01422     -191.19936     -4.5743068    
  16600000   298.97528     -2157.4326      605.19708     -215.45274      0.76885214   
  16605000   288.27015     -2137.7936      612.29176     -236.58397      2.9118885    
  16610000   302.49166     -2128.9478      604.81519     -171.62734     -11.388767    
  16615000   294.77489     -2116.5575      624.05271     -174.50284     -13.32038     
  16620000   297.73808     -2121.4325      630.17553     -160.00594     -5.1307676    
  16625000   296.3852      -2097.3983      601.72429     -170.47207     -9.4057425    
  16630000   296.37763     -2099.1026      612.37161     -161.56288      10.285167    
  16635000   291.10346     -2097.1835      613.09254     -182.50476     -7.9649267    
  16640000   303.91732     -2072.6913      616.12662     -97.684949     -9.724933     
  16645000   308.88004     -2079.0786      633.52872     -64.480774     -16.580296    
  16650000   298.15273     -2095.4465      622.60662     -139.73488      2.3284949    
  16655000   296.33712     -2106.4358      622.76908     -158.67975     -11.554629    
  16660000   305.23425     -2080.6354      596.58887     -119.27856     -12.056582    
  16665000   305.71881     -2083.6678      618.61097     -98.12227       21.27939     
  16670000   302.22736     -2088.6104      640.00601     -97.280882      8.2309328    
  16675000   290.37884     -2098.3731      594.56405     -205.46286      9.1474053    
  16680000   300.77447     -2125.6746      609.56135     -171.28586     -11.572304    
  16685000   310.46363     -2126.796       624.54586     -114.10053      15.287049    
  16690000   300.36655     -2096.016       650.20758     -102.80503      5.5358345    
  16695000   298.23495     -2115.1833      571.99235     -209.71841     -2.9700907    
  16700000   282.2588      -2109.5033      619.64474     -227.81872      11.03245     
  16705000   292.87262     -2130.6684      650.30665     -170.86525     -1.4279742    
  16710000   306.62918     -2152.1292      598.70167     -182.42255      5.8835255    
  16715000   297.87465     -2135.6974      609.72945     -194.10628     -16.099324    
  16720000   279.47013     -2123.1311      611.56231     -261.99777      6.5347884    
  16725000   296.16937     -2136.525       596.45409     -215.83391      10.598417    
  16730000   301.68988     -2141.7251      603.49331     -189.31142     -0.9452729    
  16735000   301.7768      -2115.3815      605.90213     -160.17044      11.65676     
  16740000   310.43607     -2131.0462      583.90498     -159.11476      11.356803    
  16745000   307.12581     -2112.762       568.5917      -170.9448      -1.6123799    
  16750000   305.15882     -2118.2032      609.74482     -144.02768      0.013985092  
  16755000   301.67784     -2127.0525      613.30894     -164.87705      20.105194    
  16760000   300.74648     -2141.1694      603.73744     -192.72981     -9.6638799    
  16765000   299.50388     -2137.8836      622.88579     -175.85155      10.734718    
  16770000   288.42342     -2152.7569      612.76483     -250.38896      16.065738    
  16775000   301.16014     -2143.9327      604.31738     -193.06351     -6.5493398    
  16780000   303.07337     -2125.3936      651.46623     -118.82113     -8.3125103    
  16785000   300.55817     -2146.656       611.38441     -191.41138     -14.701725    
  16790000   298.6775      -2120.6638      639.74604     -145.46643      3.3167813    
  16795000   309.85706     -2099.7647      624.09385     -90.233274      10.20302     
  16800000   307.08746     -2131.8454      635.95402     -122.8373       3.6743727    
  16805000   290.8961      -2128.6995      632.73387     -195.30664     -19.418016    
  16810000   295.29551     -2114.7598      615.37703     -179.05306      7.6228413    
  16815000   307.42946     -2127.1632      620.48553     -132.09438     -16.893701    
  16820000   301.28874     -2121.2657      585.15179     -188.98716     -15.003257    
  16825000   303.96144     -2101.7343      608.52984     -134.12749     -18.627882    
  16830000   299.40471     -2118.871       610.33643     -169.8317       28.63803     
  16835000   306.4568      -2143.7027      628.49056     -144.97788      0.16607238   
  16840000   301.05086     -2119.3253      580.02938     -193.23274      3.8310305    
  16845000   296.14472     -2122.8331      599.35201     -199.35436     -3.9115616    
  16850000   308.46932     -2147.3354      585.16587     -182.93682      7.1594175    
  16855000   301.5021      -2132.3449      647.24787     -137.01627     -2.8337333    
  16860000   291.8427      -2132.0196      591.38095     -235.74715     -1.6298004    
  16865000   300.84717     -2149.7233      599.41058     -205.16026     -6.7634614    
  16870000   291.97104     -2149.3527      604.09756     -239.78987      5.799454     
  16875000   297.29133     -2168.8204      616.85434     -222.71259      20.21858     
  16880000   306.673       -2158.1037      624.59917     -162.30357      13.875232    
  16885000   289.76977     -2130.4789      594.29096     -240.56503      5.3887999    
  16890000   295.06293     -2144.8623      625.34221     -200.23033      6.9926921    
  16895000   307.31781     -2147.3537      625.68795     -147.58171     -0.25484557   
  16900000   312.45905     -2122.9682      623.16117     -102.73542     -1.3234905    
  16905000   303.90855     -2113.4388      585.35133     -169.24701      22.018279    
  16910000   299.3601      -2138.3991      616.44541     -183.45025      23.556427    
  16915000   299.44389     -2147.3476      663.72746     -144.74213     -5.5387298    
  16920000   293.45965     -2134.8873      615.3068      -207.45934     -11.518996    
  16925000   297.53176     -2097.6643      644.80437     -122.5314       18.828137    
  16930000   291.82493     -2100.8212      621.67375     -174.33541     -10.418247    
  16935000   299.00974     -2115.7645      651.03248     -127.79519      12.127759    
  16940000   293.52089     -2121.8542      607.2308      -202.22843     -5.9683684    
  16945000   300.63385     -2148.7389      628.67118     -175.86908     -7.4638382    
  16950000   295.45768     -2116.7329      621.77965     -173.89843      16.506691    
  16955000   294.04512     -2115.8319      625.03667     -176.05629      8.5774835    
  16960000   303.57632     -2108.7849      608.48809     -142.94174     -17.495579    
  16965000   290.77707     -2129.7159      607.96126     -221.62784      18.314156    
  16970000   291.90722     -2099.0518      596.37228     -197.49961     -5.8965136    
  16975000   293.77543     -2094.3276      606.63102     -174.16344      5.227745     
  16980000   297.11783     -2117.57        611.47412     -177.61816      6.1663149    
  16985000   296.93932     -2118.402       575.88147     -214.841        5.1304023    
  16990000   295.76048     -2113.0176      620.93435     -169.6745      -1.3332182    
  16995000   301.17067     -2117.6371      613.47093     -157.56734      6.833479     
  17000000   286.81233     -2133.7589      625.23024     -226.12904      2.9615637    
  17005000   301.49451     -2106.4234      653.36607     -105.01047     -7.2180974    
  17010000   301.88227     -2087.2237      623.93957     -113.50356     -8.7168726    
  17015000   306.30003     -2084.4945      593.31764     -121.6435       6.3109824    
  17020000   298.87527     -2105.4303      581.87167     -187.22301     -13.046016    
  17025000   295.28159     -2110.8705      602.16349     -188.43958     -16.812277    
  17030000   312.53393     -2113.7294      620.48744     -95.835549     -7.5331194    
  17035000   302.28511     -2109.6173      596.70769     -161.32784     -1.1726442    
  17040000   297.01116     -2078.3859      630.41524     -119.96992     -3.3483659    
  17045000   295.33925     -2078.7201      628.1011      -130.09365     -19.128799    
  17050000   302.25957     -2071.9251      653.59193     -66.865632     -5.6476377    
  17055000   290.80415     -2080.8302      627.9967      -152.58554      4.3717093    
  17060000   298.89718     -2076.5692      628.05672     -112.07896      1.7733719    
  17065000   306.78541     -2086.1558      619.28222     -95.170071     -7.5079848    
  17070000   293.72036     -2073.308       619.80547     -140.21557     -22.500059    
  17075000   297.37408     -2090.4478      600.32831     -160.496       -4.2721722    
  17080000   294.28712     -2101.0138      607.31956     -177.87319     -6.693421     
  17085000   307.18073     -2108.8612      600.98995     -134.40013      5.2621034    
  17090000   308.31739     -2111.3836      640.70328     -92.126949      13.151632    
  17095000   299.5125      -2103.5423      621.55712     -142.80039      1.7151937    
  17100000   296.24547     -2109.1593      639.84317     -144.73891      8.5092097    
  17105000   304.28986     -2104.0289      632.10165     -111.38185     -1.8850658    
  17110000   287.31008     -2088.2153      621.92162     -181.66849     -15.093069    
  17115000   300.90837     -2094.4556      621.86943     -127.16016      9.8489875    
  17120000   300.96628     -2098.5841      594.8884      -158.01074     -0.44008389   
  17125000   287.35524     -2091.1462      612.58083     -193.73828     -0.83542487   
  17130000   304.42904     -2116.3226      558.45009     -196.70478      5.0928001    
  17135000   300.14991     -2137.9603      608.11152     -187.81402     -13.287207    
  17140000   301.73115     -2132.4276      607.02472     -176.29801     -11.787353    
  17145000   300.17119     -2115.0619      569.70892     -203.22306     -15.77148     
  17150000   301.10958     -2108.2425      608.79173     -153.12508      4.4528907    
  17155000   300.91298     -2127.2074      598.47414     -183.28665     -18.649398    
  17160000   299.88633     -2138.5344      618.41503     -179.26309      10.782568    
  17165000   308.5478      -2124.5496      631.11874     -113.84735     -5.9938565    
  17170000   284.08771     -2100.9728      598.1048      -232.65071     -8.5259599    
  17175000   304.82703     -2128.831       601.37652     -164.50722      11.911194    
  17180000   309.6164      -2113.2275      603.97757     -124.8884      -10.515034    
  17185000   304.0439      -2105.5075      589.2057      -156.85617      0.88995008   
  17190000   297.92841     -2137.9717      637.15766     -168.71202     -0.82725524   
  17195000   301.03504     -2139.6522      596.79279     -196.86696     -6.8069803    
  17200000   299.26176     -2148.674       628.35709     -182.25325      7.2728756    
  17205000   289.81076     -2106.6912      594.49319     -216.39181     -14.581013    
  17210000   305.49394     -2107.4543      610.06024     -131.46498     -11.311533    
  17215000   313.0937      -2152.5552      590.97896     -161.66693      2.2461134    
  17220000   291.96642     -2146.5557      561.27376     -279.8373      -3.144536     
  17225000   300.05156     -2112.7585      601.48832     -169.67516      5.6401271    
  17230000   300.22826     -2123.7062      641.22217     -140.09891      27.457477    
  17235000   295.37429     -2123.4886      575.53765     -227.26892      17.79978     
  17240000   296.58055     -2109.4232      589.2893      -194.05847      11.48334     
  17245000   298.31466     -2105.2921      613.77581     -157.68729      10.643872    
  17250000   303.77223     -2121.5524      615.19634     -148.12506      8.2473969    
  17255000   304.93271     -2122.9218      624.40078     -135.10132      6.3135285    
  17260000   303.57275     -2092.8559      616.37282     -119.14407      1.447377     
  17265000   297.53609     -2108.881       593.79805     -184.7351       28.576517    
  17270000   309.72698     -2126.3425      591.74192     -149.74464     -8.3675648    
  17275000   299.82478     -2129.109       606.07995     -182.44794     -2.2968887    
  17280000   306.02827     -2107.5553      569.35738     -169.87969      10.586441    
  17285000   298.0994      -2128.9386      577.78735     -218.28477     -9.0286861    
  17290000   307.68739     -2114.7342      631.04735     -107.95034      0.4217833    
  17295000   304.92592     -2107.6949      632.23586     -112.06968     -6.2584246    
  17300000   296.18644     -2135.1019      614.45283     -196.33583     -1.4910435    
  17305000   301.04338     -2127.9075      595.44713     -186.4307       14.007378    
  17310000   300.94126     -2117.3164      580.63721     -191.10609     -1.3054543    
  17315000   303.00447     -2142.1687      630.49169     -156.87888     -10.016014    
  17320000   287.06017     -2134.9294      591.66436     -259.75726     -7.3298082    
  17325000   304.30777     -2133.8757      618.63587     -154.61435      2.5260205    
  17330000   297.79568     -2126.9622      609.46212     -185.99154     -4.9117068    
  17335000   305.55958     -2137.0963      579.7693      -191.10441      16.711224    
  17340000   301.71411     -2131.0027      633.32255     -148.65147     -3.9504167    
  17345000   301.67101     -2135.955       597.27334     -189.84569      14.757623    
  17350000   289.68896     -2138.0071      593.18983     -249.55557      4.1600024    
  17355000   292.23128     -2164.6613      613.19737     -244.83508     -19.170214    
  17360000   297.78882     -2143.0109      615.13572     -196.39729      2.8240182    
  17365000   294.57318     -2151.5809      592.12988     -242.35099      9.4592063    
  17370000   301.12848     -2126.1798      650.36028     -129.40931      10.500148    
  17375000   300.46565     -2125.5317      636.86337     -145.22185      3.8499559    
  17380000   303.13683     -2147.4452      588.03438     -204.02088     -3.8100212    
  17385000   301.77213     -2134.3378      619.39074     -165.65894      11.079445    
  17390000   301.58073     -2144.7183      613.31528     -182.97072      14.834172    
  17395000   301.08807     -2140.7234      578.24653     -216.24732     -10.743863    
  17400000   296.72726     -2146.7097      603.43344     -216.54492      1.6709623    
  17405000   299.76021     -2153.4597      627.90977     -185.25761      1.5392951    
  17410000   304.93585     -2121.8029      626.11937     -132.24973      32.651699    
  17415000   313.9576      -2120.9319      603.29462     -113.86535      3.6019968    
  17420000   298.37093     -2110.0085      603.74871     -172.17914      0.27509224   
  17425000   293.8625      -2126.1639      608.2236      -204.01786     -27.472062    
  17430000   303.4326      -2131.9217      568.14532     -207.06399     -6.526949     
  17435000   299.93454     -2133.7382      607.43794     -185.22841     -1.3032031    
  17440000   289.75227     -2125.7361      614.68546     -215.50598     -3.3406926    
  17445000   299.03862     -2114.2846      629.85163     -147.367       -3.9437299    
  17450000   312.75836     -2129.3698      613.65684     -117.30302      12.564686    
  17455000   301.43226     -2127.6247      623.91589     -155.94036      22.985646    
  17460000   293.22992     -2129.9543      619.81481     -199.04546      5.2592604    
  17465000   300.31634     -2128.3238      624.06302     -161.4818       28.128547    
  17470000   308.51883     -2138.6871      590.93219     -168.30084      16.119004    
  17475000   305.6646      -2167.7972      588.76187     -212.34315     -5.1261476    
  17480000   303.28286     -2151.6109      625.96998     -169.59805     -7.9717825    
  17485000   298.01689     -2145.375       588.18106     -224.69629      10.827723    
  17490000   306.15627     -2141.1157      598.89022     -173.33494      30.915755    
  17495000   299.584       -2165.9616      630.61801     -195.83907     -26.553487    
  17500000   303.59444     -2140.6453      571.45852     -211.75071      3.4436385    
  17505000   291.73594     -2169.2067      604.82702     -259.96556      0.78641329   
  17510000   299.43854     -2149.5676      600.38499     -210.32853      3.7082729    
  17515000   303.42019     -2151.4083      592.1306      -202.62072      5.8497393    
  17520000   306.62136     -2141.9425      603.31988     -167.65259      0.8479265    
  17525000   302.97478     -2162.4437      601.38835     -206.38993      4.0598795    
  17530000   302.29625     -2168.719       612.37173     -204.7157       9.5139213    
  17535000   308.32285     -2154.0412      623.35707     -152.10635      19.011691    
  17540000   292.87303     -2138.9699      596.00425     -233.4674       22.249946    
  17545000   297.51258     -2132.6626      610.37482     -192.045       -1.3558219    
  17550000   297.42101     -2157.2159      585.12521     -242.2574       18.170228    
  17555000   303.49957     -2152.4723      617.1652      -178.29526      8.6676703    
  17560000   301.58835     -2158.96        597.33704     -213.15656      31.092962    
  17565000   297.61182     -2137.7778      580.99338     -226.09799      11.626838    
  17570000   298.71557     -2142.8671      609.48236     -197.76311     -8.1578473    
  17575000   298.77423     -2126.4719      600.50352     -190.08456      4.1220974    
  17580000   301.07923     -2136.4073      623.96234     -166.255        3.370477     
  17585000   300.18411     -2153.5559      593.00309     -218.36511      2.7927609    
  17590000   302.25688     -2122.4975      559.22313     -211.81886     -1.4614839    
  17595000   300.09744     -2108.3994      634.38396     -132.21525     -17.442875    
  17600000   297.94538     -2126.3233      634.2555      -159.88994      9.934047     
  17605000   302.45945     -2131.6114      590.22397     -189.02614     -14.295994    
  17610000   298.50183     -2133.8256      644.93022     -154.22953      4.8054078    
  17615000   303.67834     -2174.8263      632.88747     -184.12764      6.1652297    
  17620000   295.5439      -2163.3516      589.54842     -252.36288      10.343489    
  17625000   302.56784     -2178.3686      622.734       -202.78875      5.4906067    
  17630000   308.97364     -2184.841       615.04336     -188.31011     -13.400398    
  17635000   296.38194     -2175.5415      630.35791     -219.99618     -4.1021841    
  17640000   296.12371     -2144.36        601.05178     -219.27541     -6.5629286    
  17645000   300.09006     -2152.7865      630.29502     -180.72422     -1.1772582    
  17650000   297.44551     -2199.5949      604.27054     -265.38153      2.0810261    
  17655000   299.72113     -2170.3953      627.54289     -202.7348       19.543081    
  17660000   307.4833      -2156.2113      587.90994     -193.4774       0.3715823    
  17665000   311.41709     -2176.3186      615.38891     -168.5169      -11.323764    
  17670000   306.17302     -2176.6657      607.72508     -199.97519      5.960369     
  17675000   299.12318     -2153.87        617.47301     -198.95292     -15.636155    
  17680000   299.43823     -2154.8932      598.41828     -217.62218      1.0265132    
  17685000   299.29867     -2150.2535      626.56412     -185.46069     -18.491269    
  17690000   286.89785     -2130.3924      594.57177     -253.03859      2.8380982    
  17695000   306.41864     -2138.4916      606.49774     -161.93021      0.79387127   
  17700000   297.49194     -2135.4406      586.72888     -218.56126      5.1925084    
  17705000   299.57584     -2147.2545      623.61099     -184.17553     -2.6936266    
  17710000   296.05492     -2154.9545      606.59479     -224.63451      1.8730242    
  17715000   302.76642     -2168.8349      623.17204     -191.92909     -10.628065    
  17720000   292.26191     -2160.7125      610.86279     -243.08389     -15.741757    
  17725000   305.63857     -2127.1768      569.39255     -191.20849     -2.085052     
  17730000   307.65846     -2117.7427      618.75048     -123.38504      2.9757211    
  17735000   301.90629     -2136.5544      601.2022      -185.46422     -1.2115397    
  17740000   294.20564     -2125.7548      632.77735     -177.52077     -12.09431     
  17745000   306.26897     -2130.4856      599.66493     -161.42622     -4.6744924    
  17750000   296.98207     -2106.6774      587.48345     -191.32326      8.3975332    
  17755000   291.0957      -2077.8838      618.54901     -157.78336     -3.2430768    
  17760000   289.23906     -2085.9257      630.99098     -161.68465     -7.1856432    
  17765000   297.9175      -2093.18        629.61537     -131.51137     -1.4353807    
  17770000   289.10725     -2084.5192      600.02052     -191.83796     -6.9057399    
  17775000   292.88876     -2062.1385      614.64264     -137.92725      4.8164004    
  17780000   309.03102     -2067.6562      632.66666     -53.245394      17.646746    
  17785000   302.65068     -2072.9133      601.75242     -117.94466     -19.316852    
  17790000   304.43777     -2088.5231      640.19669     -87.119637      34.649228    
  17795000   297.19707     -2082.4667      616.58066     -137.05399      2.6944326    
  17800000   302.45734     -2095.7673      645.17414     -98.241381      13.969835    
  17805000   310.406       -2068.6515      586.13863     -94.62092      -2.1200785    
  17810000   310.99458     -2065.8439      592.90038     -82.41987      -22.726458    
  17815000   287.01487     -2073.5325      602.82363     -187.40368     -2.9590296    
  17820000   304.19335     -2083.6912      608.65925     -114.91802     -0.70960609   
  17825000   293.53502     -2079.1357      630.11194     -136.56556      3.4801246    
  17830000   292.08497     -2047.8911      633.23311     -108.68321     -15.021233    
  17835000   316.7988      -2080.2428      626.38384     -37.383367     -1.4610375    
  17840000   306.56218     -2043.3511      599.56645     -73.079206      13.993612    
  17845000   305.82036     -2052.6881      641.10363     -44.195901      10.209115    
  17850000   301.26308     -2053.8396      624.29529     -82.532269      24.701829    
  17855000   299.93536     -2061.1978      617.13097     -102.99134     -2.825147     
  17860000   296.7298      -2077.3995      630.71595     -119.94084      9.2160304    
  17865000   296.84832     -2081.3863      612.87525     -141.23841     -8.6968657    
  17870000   297.73357     -2065.7006      624.69202     -109.77778      5.0719689    
  17875000   292.58381     -2077.8459      633.36069     -136.2801      -1.1280891    
  17880000   301.3578      -2049.9245      621.05776     -81.431236     -4.5374623    
  17885000   299.12819     -2052.1409      642.42697     -72.247457     -2.1307383    
  17890000   298.88189     -2070.0484      578.56841     -155.11475      8.8805319    
  17895000   301.33114     -2084.687       612.76605     -124.60456      9.1366234    
  17900000   302.19035     -2074.5084      646.67895     -76.671409      17.526405    
  17905000   290.84873     -2069.4163      597.35223     -171.61688      4.2563609    
  17910000   303.40243     -2110.4853      614.59434     -139.31346      13.013398    
  17915000   311.08296     -2102.6965      614.58278     -97.194892      3.3447633    
  17920000   300.56992     -2102.0883      592.54193     -165.63355      2.0006987    
  17925000   298.33746     -2090.4936      590.00197     -166.56074     -4.3179713    
  17930000   297.37384     -2117.4849      621.48258     -166.37988      0.59767217   
  17935000   294.34788     -2117.947       619.07472     -182.77954     -11.985579    
  17940000   297.62649     -2100.5074      648.18532     -121.56998      17.433141    
  17945000   310.31092     -2083.3554      614.50142     -81.387137      21.979066    
  17950000   284.82674     -2109.325       612.75386     -223.04956     -19.084591    
  17955000   296.61644     -2107.5232      609.97493     -171.31242      3.7669581    
  17960000   305.22573     -2117.863       609.95149     -143.18159     -15.637371    
  17965000   299.94181     -2100.2034      622.53808     -136.561        8.8340727    
  17970000   301.45107     -2110.6996      640.79649     -122.05059     -2.8950624    
  17975000   283.38094     -2118.7832      611.03516     -240.69084      11.163861    
  17980000   309.30003     -2121.9585      601.38196     -137.62956      19.546557    
  17985000   301.07704     -2082.019       582.17307     -153.66568      14.02614     
  17990000   283.36631     -2099.6214      620.69885     -211.93087      0.21012143   
  17995000   299.85515     -2087.9243      634.28884     -112.91861      5.6867624    
  18000000   297.27198     -2083.7615      605.4052      -149.18938     -4.3999212    
  18005000   310.67241     -2062.5675      614.74184     -58.742476     -20.487873    
  18010000   297.49661     -2104.2639      611.43874     -162.65384     -1.1038802    
  18015000   303.64145     -2088.367       611.49612     -119.22463      6.268128     
  18020000   294.67045     -2108.6319      613.39226     -177.70469     -6.4846708    
  18025000   295.01669     -2085.1195      570.59697     -195.43944     -10.015907    
  18030000   294.96626     -2095.4364      588.01203     -188.56674      19.151534    
  18035000   305.29623     -2111.5052      583.60755     -162.85254      25.206187    
  18040000   301.63646     -2119.2052      608.54992     -161.97378      2.2195561    
  18045000   304.81518     -2095.5838      590.91976     -141.76979      5.7446464    
  18050000   285.97755     -2101.9424      609.18498     -214.09027     -15.002225    
  18055000   294.53773     -2079.0861      622.0756      -140.06895      14.269424    
  18060000   316.55202     -2107.1687      593.64453     -98.151946      4.0844308    
  18065000   295.61892     -2090.0839      616.56792     -151.74016      15.381595    
  18070000   301.04709     -2102.2366      604.15582     -152.03448      18.346266    
  18075000   301.15419     -2090.4774      642.65003     -101.30226      4.8246448    
  18080000   296.13496     -2140.1738      599.20258     -216.88818     -6.4471657    
  18085000   292.09968     -2136.0883      602.22516     -227.82259      1.8829952    
  18090000   300.02931     -2146.6902      617.90344     -187.2912       16.673599    
  18095000   299.75674     -2166.9914      621.91056     -204.80399     -17.699277    
  18100000   306.82265     -2145.1774      612.63352     -160.67378      13.653541    
  18105000   307.68985     -2163.5146      568.7518      -219.01533      7.3704122    
  18110000   306.79363     -2141.6195      587.059       -182.82022     -1.5852932    
  18115000   301.34207     -2163.1147      617.66027     -198.08929     -8.5406801    
  18120000   303.61572     -2147.1047      600.54708     -189.02648      10.219948    
  18125000   306.65827     -2157.941       605.52753     -181.27835      25.78442     
  18130000   302.26802     -2152.4001      615.8907      -185.00411     -12.636411    
  18135000   291.12284     -2153.4181      621.40115     -230.3441      -7.9683591    
  18140000   298.95111     -2161.3186      569.5063      -255.13764     -18.792763    
  18145000   294.67311     -2139.7737      605.03716     -217.18967      0.063583652  
  18150000   302.14597     -2153.0277      589.3503      -212.71778     -17.955234    
  18155000   304.24453     -2175.692       595.16458     -220.18466     -3.4438922    
  18160000   303.11625     -2179.7816      591.69843     -232.78525      3.2564394    
  18165000   290.71806     -2162.0274      579.92131     -282.24308     -2.1847567    
  18170000   301.92546     -2177.9612      624.31814     -203.66936      4.1727888    
  18175000   304.61869     -2172.2376      600.1652      -210.05672      3.7172773    
  18180000   294.48769     -2170.1325      606.53195     -246.8828       5.9269942    
  18185000   301.80335     -2169.0731      607.3778      -212.26763     -6.7496105    
  18190000   294.47984     -2171.2061      600.54588     -253.97748     -1.9287292    
  18195000   311.93325     -2183.5531      630.86147     -157.97097     -3.7854507    
  18200000   316.73155     -2186.8185      612.68785     -157.95571     -16.650738    
  18205000   288.31498     -2165.3835      612.2621      -264.00306      14.958713    
  18210000   300.39704     -2159.3839      595.3582      -220.88595      8.5161323    
  18215000   304.28881     -2165.7685      620.69191     -184.53588     -2.1121597    
  18220000   295.20468     -2177.2263      606.59087     -250.71187     -19.378322    
  18225000   320.45039     -2159.5357      586.73109     -140.00197      17.051306    
  18230000   301.5283      -2145.0246      655.59655     -141.23015     -19.552025    
  18235000   292.18532     -2141.189       650.61299     -184.15263      3.1747207    
  18240000   304.11764     -2162.4412      601.62676     -201.03907      15.659487    
  18245000   311.6629      -2160.7977      604.54445     -162.74145      4.866456     
  18250000   295.38977     -2187.6154      599.63318     -267.23106     -7.9966736    
  18255000   304.66516     -2168.5963      630.14771     -176.2251       6.6533646    
  18260000   287.192       -2176.2735      589.76811     -302.40813      5.6258863    
  18265000   291.72227     -2194.3811      584.58222     -305.44582     -7.8702094    
  18270000   313.91713     -2192.2003      648.55594     -140.05335      5.0127161    
  18275000   294.93496     -2199.8488      613.82605     -267.30513     -2.3322215    
  18280000   302.24526     -2192.8073      614.27115     -227.1326       8.5099171    
  18285000   300.0493      -2206.5848      634.61752     -230.38235      4.3565292    
  18290000   301.9842      -2182.6376      591.02857     -241.37271     -4.2417503    
  18295000   299.64844     -2190.7869      602.68515     -248.30909      0.66876806   
  18300000   303.06149     -2194.8664      599.45272     -240.36058      11.783693    
  18305000   298.6862      -2189.6602      595.49365     -258.6763      -5.4827297    
  18310000   294.62045     -2167.7326      635.67923     -214.74201     -7.5650911    
  18315000   313.71114     -2167.3128      582.35268     -182.29016      13.313239    
  18320000   293.04609     -2184.9011      579.13772     -295.49127     -12.899452    
  18325000   296.24215     -2156.023       607.95847     -223.50223      14.812022    
  18330000   300.65202     -2182.4729      627.34353     -210.84948     -11.602315    
  18335000   308.92346     -2181.594       569.68304     -230.64771      26.136482    
  18340000   303.68325     -2186.4075      614.43572     -214.13866      0.59103358   
  18345000   307.3528      -2196.1549      623.49358     -198.42088      10.333892    
  18350000   310.96304     -2213.6229      599.80526     -223.43506     -11.686998    
  18355000   293.88444     -2186.0928      617.72185     -254.35045      27.823792    
  18360000   307.87329     -2197.0285      591.68961     -228.77119     -3.2269289    
  18365000   308.13765     -2203.5194      613.88969     -211.87995      8.6853175    
  18370000   298.39648     -2160.9863      599.82548     -226.96604     -32.867317    
  18375000   306.74956     -2183.7809      621.31164     -190.92598     -3.2841811    
  18380000   291.18043     -2193.3766      586.62845     -304.81777      7.3997542    
  18385000   300.85391     -2180.784       596.25783     -239.34367      11.227653    
  18390000   288.36181     -2173.3671      631.17339     -252.86606      8.9224408    
  18395000   300.86071     -2162.3057      586.22835     -230.86444      0.4105259    
  18400000   295.5573      -2163.9205      589.70286     -252.71736     -1.7892327    
  18405000   296.34622     -2160.9083      600.25678     -235.62382      14.656586    
  18410000   298.82053     -2166.2492      623.12507     -207.03328     -18.765826    
  18415000   307.93416     -2164.7659      609.52539     -178.40067      7.4787114    
  18420000   304.53852     -2166.402       613.79408     -190.95068     -5.1535506    
  18425000   315.56728     -2172.1437      609.99066     -151.18389      26.497436    
  18430000   304.53475     -2174.8708      590.13222     -223.09822      1.089822     
  18435000   294.39988     -2153.6294      603.5853      -233.71891     -5.1897021    
  18440000   307.61126     -2157.7421      567.77527     -214.57072     -14.782565    
  18445000   307.13703     -2121.1842      584.14262     -163.76581     -2.4136968    
  18450000   296.50472     -2122.37        590.13048     -206.50316      2.8865209    
  18455000   286.84498     -2129.0097      611.03836     -235.4258       5.0838977    
  18460000   296.43717     -2127.7539      602.41317     -199.90643     -7.7639086    
  18465000   293.26984     -2145.5353      579.07796     -255.18483     -3.2590547    
  18470000   292.42695     -2129.4008      607.09038     -214.80664      8.9402346    
  18475000   309.42531     -2100.1197      590.39043     -126.22217     -3.1181486    
  18480000   301.87756     -2107.9258      623.52548     -134.64079      3.1944166    
  18485000   309.02846     -2111.7703      594.0878      -135.9498      -16.638026    
  18490000   303.78336     -2106.2401      587.86432     -160.09509      7.2898472    
  18495000   302.72217     -2095.229       600.70714     -140.98595      19.567918    
  18500000   303.13317     -2083.7297      626.49492     -101.8612      -4.1436669    
  18505000   296.49752     -2096.3202      576.57013     -194.04588     -12.40821     
  18510000   308.98489     -2101.8595      581.81711     -138.50453     -8.8137174    
  18515000   306.57295     -2132.3831      576.79212     -184.83741      7.8384143    
  18520000   300.50806     -2127.5831      618.63074     -165.31617      4.3700524    
  18525000   307.26638     -2106.4764      585.98093     -146.6414      -5.6542427    
  18530000   297.78316     -2131.7562      601.9177      -198.38595      28.230898    
  18535000   306.56078     -2135.4643      590.25242     -174.51274      17.85793     
  18540000   307.55518     -2159.6187      583.15063     -201.32268     -7.779142     
  18545000   295.71638     -2152.6178      615.55106     -214.8552       5.8361254    
  18550000   306.43994     -2163.9549      601.69709     -192.09896      9.2299897    
  18555000   301.34097     -2157.7324      613.70007     -196.67204      11.270714    
  18560000   290.67546     -2158.3341      622.18958     -236.47201     -21.602235    
  18565000   290.98922     -2144.2815      597.75929     -245.44687      10.607088    
  18570000   291.87636     -2152.1092      605.7786      -241.28863      4.6356749    
  18575000   312.65741     -2151.115       597.0363      -156.12013      23.061639    
  18580000   287.79467     -2176.3765      619.86146     -269.72315     -4.282822     
  18585000   308.4864      -2156.4677      604.47041     -172.68822      3.904929     
  18590000   308.83271     -2161.7212      602.95945     -177.90431      23.711911    
  18595000   298.77896     -2141.4844      577.72371     -227.85575     -9.2425198    
  18600000   294.04366     -2147.0255      597.97343     -234.31962     -20.715476    
  18605000   293.88349     -2162.1687      619.68402     -228.46836     -0.7586424    
  18610000   299.42567     -2185.8408      628.61436     -218.42993      8.982322     
  18615000   305.87659     -2161.6059      613.20876     -180.75712     -12.554185    
  18620000   298.22908     -2167.6124      622.47079     -211.69528      2.2850896    
  18625000   291.31898     -2195.8581      632.29111     -261.01724     -7.4501569    
  18630000   292.42425     -2160.1355      636.1754      -216.46833      0.22577152   
  18635000   293.55403     -2161.4824      604.9337      -244.00549      4.4161167    
  18640000   289.51375     -2139.2888      634.34239     -210.46819      1.6994181    
  18645000   312.61482     -2161.2344      665.69294     -97.773337     -0.65859535   
  18650000   298.02224     -2166.527       605.13615     -228.86936      11.843609    
  18655000   298.04853     -2161.331       609.40327     -219.28867      12.599073    
  18660000   302.77812     -2178.2039      610.69331     -213.72453      4.9296706    
  18665000   302.32252     -2169.6936      597.05521     -220.8894      -10.931788    
  18670000   305.19039     -2176.9856      646.44669     -165.96707     -3.8063806    
  18675000   299.31375     -2147.9907      636.50468     -173.18983     -14.884245    
  18680000   308.96234     -2173.618       592.89918     -199.28175      12.226574    
  18685000   302.91367     -2180.9106      568.17972     -258.33871      1.4316067    
  18690000   308.48414     -2162.6063      634.76366     -148.54371     -28.181856    
  18695000   302.56894     -2167.9444      596.71662     -218.37697      13.26734     
  18700000   299.58072     -2161.9374      625.52595     -196.92164     -0.26702115   
  18705000   299.94316     -2184.5612      626.81572     -216.63509     -4.5116133    
  18710000   298.25311     -2190.0265      577.04383     -279.4289      -1.0136835    
  18715000   305.61398     -2170.9156      568.87776     -235.57202     -19.318033    
  18720000   298.28379     -2180.1812      584.67942     -261.81076     -20.459747    
  18725000   310.74336     -2193.6132      606.82401     -197.38885     -27.089221    
  18730000   302.29857     -2193.908       605.73169     -236.53434      5.7319458    
  18735000   297.17515     -2189.8203      636.03209     -225.05422      20.292163    
  18740000   303.60369     -2224.0736      611.52825     -255.06799      11.792769    
  18745000   298.70268     -2178.0614      641.96949     -200.528        3.4703169    
  18750000   300.88395     -2160.4889      629.04556     -186.12645     -4.1264909    
  18755000   308.43805     -2164.1977      618.2495      -166.8553      -4.3838978    
  18760000   298.40731     -2171.6671      591.70649     -245.7174      -12.233656    
  18765000   298.48731     -2140.3577      609.19978     -196.55702     -0.65779525   
  18770000   292.94734     -2130.4323      634.32447     -186.27725      7.0417203    
  18775000   293.74185     -2112.115       589.42733     -209.30473     -12.047851    
  18780000   295.43165     -2139.0858      560.59922     -257.54816     -5.1668282    
  18785000   296.55601     -2144.0469      639.19568     -178.88554      18.506733    
  18790000   296.18418     -2136.5278      625.26445     -186.9602      -19.147456    
  18795000   299.76272     -2125.5663      636.99136     -148.27129     -17.997534    
  18800000   301.9365      -2128.585       602.36512     -176.19688      7.3768977    
  18805000   298.38915     -2138.5728      622.94379     -181.46694      14.483666    
  18810000   309.57855     -2147.0645      615.72653     -147.14573     -10.045093    
  18815000   303.73949     -2131.7679      624.97068     -148.71261      18.724971    
  18820000   300.67814     -2138.6261      593.46192     -200.76752     -9.626298     
  18825000   303.40917     -2125.6445      623.22232     -145.8145       13.413063    
  18830000   303.44806     -2115.1693      634.18654     -124.2012      -8.6647975    
  18835000   298.22073     -2119.3154      638.98464     -146.92174     -9.8282749    
  18840000   298.75216     -2145.5015      596.10583     -213.61055      0.17952505   
  18845000   294.63646     -2142.0902      590.62606     -234.08118      4.8371959    
  18850000   291.98215     -2127.5609      608.07148     -213.97441      20.274676    
  18855000   298.77125     -2161.8735      600.53313     -225.4698      -1.3640849    
  18860000   306.62691     -2155.3602      603.14227     -181.22305      13.618369    
  18865000   301.99781     -2160.0862      593.59683     -216.19218     -1.1108031    
  18870000   293.5376      -2174.7147      608.06537     -254.17962      20.726189    
  18875000   298.12505     -2162.7079      603.89153     -225.83513     -6.9648462    
  18880000   289.89268     -2165.6407      608.68588     -260.78223      16.907127    
  18885000   300.29296     -2157.0818      638.91687     -175.49055      8.4234041    
  18890000   296.09791     -2184.8397      610.42478     -250.49749      2.1219593    
  18895000   298.28151     -2175.6943      611.94073     -230.07283      5.9314524    
  18900000   307.07039     -2152.2131      580.97276     -198.26262      16.350995    
  18905000   300.51225     -2159.9211      611.85996     -204.40622     -15.201735    
  18910000   310.57402     -2148.7148      608.94246     -151.1291       5.5596052    
  18915000   300.27602     -2171.3673      593.23635     -235.53226      7.4193865    
  18920000   302.15486     -2175.6908      603.69535     -220.99608      12.806009    
  18925000   302.7001      -2153.1049      615.61795     -184.04975     -14.923788    
  18930000   295.33699     -2170.7441      609.37061     -240.85825     -7.3900468    
  18935000   299.50869     -2160.6763      627.36016     -194.14836     -5.4463387    
  18940000   306.53471     -2173.8432      599.6145      -203.64612      14.089053    
  18945000   308.75557     -2128.7778      585.49688     -162.76833      16.463032    
  18950000   306.17918     -2133.9247      602.01412     -162.91762      21.455881    
  18955000   296.91094     -2121.9447      622.9379      -171.45417      10.413193    
  18960000   300.77252     -2116.4124      598.51679     -173.07697     -14.985644    
  18965000   296.66987     -2127.7294      637.51362     -163.74102      26.283599    
  18970000   302.95048     -2171.586       570.40293     -246.62635      15.980061    
  18975000   311.55785     -2108.3531      573.30525     -142.0057      -8.1219884    
  18980000   302.89286     -2130.1579      603.98591     -171.87283     -8.7410171    
  18985000   306.67974     -2131.5662      580.72787     -179.60724      3.2533685    
  18990000   293.69594     -2127.8397      661.23579     -153.4262      -9.9530317    
  18995000   299.36855     -2131.9618      624.82925     -168.59134     -4.6814895    
  19000000   295.58372     -2139.7391      585.02113     -233.09956      13.059042    
  19005000   293.66028     -2137.409       610.57531     -213.8154       8.8764645    
  19010000   301.73646     -2117.0233      593.36323     -174.53144      19.591993    
  19015000   312.54846     -2129.9325      625.56866     -106.89241      8.8133861    
  19020000   300.24637     -2128.8782      642.90574     -143.50636      7.4673797    
  19025000   303.41248     -2115.4652      616.3104      -142.53229      32.162399    
  19030000   306.35594     -2153.8973      645.30271     -138.81127      15.09186     
  19035000   305.32464     -2136.5782      611.50939     -159.89666      12.188233    
  19040000   305.44201     -2125.7404      566.07298     -193.97053      6.7046961    
  19045000   298.25311     -2135.1741      610.50845     -191.11183      3.4458288    
  19050000   311.54461     -2142.6547      590.04507     -159.62671      3.335102     
  19055000   303.65482     -2138.2098      594.94842     -185.55537     -10.113882    
  19060000   289.32081     -2139.2078      616.74243     -228.84978      0.49906275   
  19065000   300.89314     -2185.3802      597.90636     -242.11588      7.7235963    
  19070000   300.26195     -2141.6963      619.64465     -179.51586     -9.1668802    
  19075000   303.82515     -2135.982       610.30814     -167.20632      11.451704    
  19080000   299.68069     -2172.4204      633.77237     -198.71122     -10.187499    
  19085000   295.25141     -2165.9         602.53083     -243.23665      26.389087    
  19090000   301.65681     -2150.0301      630.7326      -170.52507      7.1161469    
  19095000   299.27083     -2158.7159      625.46147     -195.15024     -14.593858    
  19100000   291.13284     -2158.6992      643.3881      -213.59357     -4.5173517    
  19105000   292.9559      -2177.4244      606.63303     -260.92256     -1.4597845    
  19110000   308.89042     -2152.6354      611.09054     -160.42936     -10.391816    
  19115000   309.08164     -2170.3382      624.45042     -163.91731      3.2784427    
  19120000   297.0383      -2148.8262      591.93105     -228.77305     -6.9191475    
  19125000   302.3355      -2154.2753      593.5552      -208.91306      12.944647    
  19130000   308.17053     -2138.4679      643.72185     -116.84933      4.6063703    
  19135000   304.55801     -2168.3635      609.05326     -197.56585      32.668183    
  19140000   302.90035     -2185.9096      599.55766     -232.01933     -8.1153355    
  19145000   301.77614     -2191.4643      592.66319     -249.49513      1.3007518    
  19150000   304.44584     -2162.9055      611.35433     -190.30833      14.500807    
  19155000   308.45246     -2172.9154      636.70849     -157.04969      6.5787321    
  19160000   298.78421     -2165.2423      620.66545     -208.64836     -19.182243    
  19165000   301.18194     -2162.2983      609.88734     -205.76174      4.360876     
  19170000   300.79082     -2143.1052      602.55357     -195.65121      1.8590679    
  19175000   310.53827     -2137.9779      633.45666     -116.03786     -12.825782    
  19180000   299.21869     -2174.6243      671.9381      -164.81512      17.297255    
  19185000   293.01378     -2171.6749      602.10844     -259.43877      5.9433044    
  19190000   307.69756     -2159.5926      604.04202     -179.7686       14.18955     
  19195000   308.32477     -2174.8172      616.19272     -180.03812      14.726542    
  19200000   295.33457     -2189.943       576.86239     -292.57624      12.287768    
  19205000   296.56012     -2180.7814      637.60603     -217.19128     -2.6074181    
  19210000   293.15703     -2173.1093      578.05136     -284.28982      14.46739     
  19215000   291.71235     -2175.233       615.63195     -255.29236     -2.8229167    
  19220000   293.70858     -2183.9571      604.42174     -266.30118      8.6588439    
  19225000   305.39684     -2172.0837      586.25154     -220.3372       16.405685    
  19230000   298.00255     -2171.4164      622.56025     -216.42261     -2.2578838    
  19235000   293.92741     -2150.8686      590.45615     -246.1998       4.9653646    
  19240000   304.5679      -2129.5636      622.21033     -145.56462     -10.682831    
  19245000   314.73448     -2155.6477      613.60613     -134.79603      4.6424306    
  19250000   296.09724     -2151.6217      636.41301     -191.29423      6.195684     
  19255000   296.37051     -2174.5343      595.29675     -254.10129      1.7816333    
  19260000   303.84667     -2175.5949      619.96217     -197.0689      -7.5922674    
  19265000   302.67473     -2149.1034      588.35031     -207.42931     -5.9349462    
  19270000   300.20434     -2152.2877      571.60589     -238.40364      2.1814611    
  19275000   293.6236      -2139.1824      595.66201     -230.6661      -10.024599    
  19280000   306.55406     -2141.0759      582.91546     -187.49128      7.9930484    
  19285000   296.52791     -2149.2323      571.74811     -251.64407      7.3845465    
  19290000   296.8989      -2135.5059      592.83736     -215.16968      18.651706    
  19295000   299.0117      -2140.2018      624.61013     -178.64606     -15.217165    
  19300000   297.26531     -2125.2472      595.73523     -200.37482      11.611702    
  19305000   301.44744     -2147.0621      597.0516      -202.17415      1.5506012    
  19310000   302.01239     -2103.6629      601.38627     -151.91426      9.2571601    
  19315000   293.1488      -2119.5315      602.40654     -206.3936      -12.314862    
  19320000   296.9442      -2121.3167      614.08691     -179.52847     -4.8662567    
  19325000   304.6803      -2130.7738      627.56718     -140.91546      8.4908669    
  19330000   300.38        -2128.3097      608.23559     -177.0105      -5.9135115    
  19335000   309.6354      -2107.9744      598.90248     -124.62544      7.5952671    
  19340000   295.21984     -2110.5826      648.58499     -142.0062      -11.021909    
  19345000   301.68414     -2108.2078      613.59946     -145.71364      12.615256    
  19350000   298.55112     -2108.81        599.14592     -174.77781     -3.8912613    
  19355000   302.62609     -2093.129       634.5314      -105.49131     -5.8117596    
  19360000   304.56066     -2120.3979      637.24379     -121.39795     -3.8845112    
  19365000   300.20205     -2115.9742      647.40021     -126.30602      25.723751    
  19370000   293.5764      -2112.8524      621.72869     -178.48046      21.996388    
  19375000   306.49733     -2119.5963      628.99441     -120.18645      10.60552     
  19380000   297.87428     -2117.6989      610.11527     -175.72369     -11.400119    
  19385000   303.77054     -2121.5419      624.97256     -138.34597     -22.813837    
  19390000   303.12671     -2111.1206      596.25689     -159.51902     -19.395932    
  19395000   308.40541     -2132.2095      635.81283     -117.44978      4.4984298    
  19400000   297.82614     -2128.1228      589.08201     -207.39611      1.3485791    
  19405000   302.95144     -2120.7382      583.77825     -182.39889      5.0446583    
  19410000   294.66205     -2126.9322      632.21238     -177.22243      1.2329691    
  19415000   301.92422     -2138.285       644.62454     -143.69237      14.649975    
  19420000   306.8066      -2137.287       616.02106     -149.46762      9.412105     
  19425000   316.58815     -2120.3403      592.58809     -112.21853     -8.1513284    
  19430000   291.06637     -2116.5593      610.01955     -205.11943     -25.084609    
  19435000   294.42134     -2125.3538      612.57368     -196.359       -7.0565083    
  19440000   300.37399     -2116.5643      596.83174     -176.69582      1.0791834    
  19445000   295.39299     -2138.7472      576.31756     -241.66404      0.28648832   
  19450000   307.66466     -2112.8175      633.47821     -103.70442     -11.00818     
  19455000   296.72368     -2114.4719      590.47194     -197.28456      7.2097585    
  19460000   305.42696     -2133.1223      623.76751     -143.72519      10.096082    
  19465000   295.6685      -2135.866       609.0239      -204.84465      0.78217729   
  19470000   293.18143     -2119.8896      601.30796     -207.7044      -15.593473    
  19475000   296.94266     -2121.8722      596.04052     -198.13713     -4.4658798    
  19480000   304.5238      -2122.3161      603.7762      -156.94844     -0.091576656  
  19485000   298.59963     -2140.8539      624.55464     -181.1961      -2.3699855    
  19490000   309.13219     -2138.9168      607.24904     -149.47127      4.0482797    
  19495000   303.05862     -2133.6098      614.90412     -163.66544     -5.9823278    
  19500000   300.2941      -2138.8712      637.88216     -158.30949      4.5805195    
  19505000   291.38235     -2130.5034      597.24405     -230.42613     -12.056176    
  19510000   307.11247     -2159.956       599.95388     -186.83624      17.032227    
  19515000   296.88619     -2146.2648      635.11873     -183.704        11.629395    
  19520000   298.10988     -2135.5652      607.97362     -194.67818      24.996523    
  19525000   297.48959     -2140.0965      627.93408     -182.02248      20.452917    
  19530000   299.1536      -2165.4605      613.87325     -214.00712     -7.1132679    
  19535000   310.06112     -2152.1495      608.32064     -157.47888      21.740077    
  19540000   302.28548     -2128.7395      592.36697     -184.78916     -2.9004353    
  19545000   308.56386     -2167.9246      607.797       -180.47224      1.0365825    
  19550000   303.10701     -2164.8197      590.58441     -218.97863     -14.134906    
  19555000   309.27186     -2146.8106      580.94537     -183.04426      18.280899    
  19560000   297.90165     -2160.1795      599.3983      -228.79882      17.458868    
  19565000   317.62769     -2171.0532      616.6699      -134.20156      5.5910608    
  19570000   305.77048     -2180.2765      653.3779      -159.73298     -11.011284    
  19575000   303.52123     -2160.9371      605.92337     -197.90505      0.7500907    
  19580000   305.45933     -2173.0776      603.64908     -203.65413     -3.4138783    
  19585000   309.03352     -2149.9316      590.05861     -178.1176       21.887116    
  19590000   303.85934     -2179.0274      626.53591     -193.87101      11.135068    
  19595000   308.37213     -2166.8444      632.57613     -155.47011      5.5393069    
  19600000   283.48623     -2149.8294      671.14275     -211.15875     -8.4704762    
  19605000   311.24515     -2145.4226      612.49274     -141.28579      8.4227498    
  19610000   303.13652     -2160.4099      590.7251      -214.29623      25.209286    
  19615000   289.02701     -2145.2364      604.9484      -247.98606     -3.9837822    
  19620000   295.42383     -2166.5639      615.04326     -230.61717      5.121444     
  19625000   298.20888     -2147.4652      616.47596     -197.63323     -6.5377557    
  19630000   302.17639     -2158.289       588.81654     -218.37688     -18.706511    
  19635000   295.00666     -2144.0609      611.04657     -213.97614     -0.94358877   
  19640000   291.55258     -2128.627       587.73008     -237.30267      12.170396    
  19645000   307.96064     -2149.591       581.12287     -191.5099      -4.3018482    
  19650000   302.43904     -2144.7703      609.75949     -182.74081      3.5103063    
  19655000   285.63713     -2140.2119      612.12322     -250.94363      2.4183108    
  19660000   299.37768     -2141.9141      601.14796     -202.18412     -13.200725    
  19665000   300.98622     -2142.3767      616.72119     -179.88138     -10.886222    
  19670000   303.79838     -2143.4813      641.43067     -143.70277      10.499357    
  19675000   301.50883     -2138.2754      591.66722     -198.49735     -6.7900365    
  19680000   299.95294     -2148.1444      605.98671     -201.00354     -6.8955932    
  19685000   309.01353     -2151.8017      591.0947      -179.04109      6.8284617    
  19690000   297.027       -2138.462       627.7658      -182.62464     -14.589219    
  19695000   307.33047     -2158.1509      652.68903     -131.32128      1.7345899    
  19700000   293.78245     -2146.9061      592.4181      -240.92354      8.8161804    
  19705000   314.21175     -2176.2447      613.03209     -158.30427      7.2542321    
  19710000   299.82897     -2154.6876      610.27891     -203.8089      -1.1060304    
  19715000   292.17997     -2147.6392      596.1736      -245.06606      30.682832    
  19720000   297.49965     -2146.6449      618.86472     -197.59522      13.336016    
  19725000   309.51293     -2189.5054      609.62746     -195.97905     -9.1244074    
  19730000   302.72807     -2169.7985      625.91462     -190.32154      12.741488    
  19735000   308.9919      -2145.2094      598.27626     -165.36388     -7.4014794    
  19740000   296.2865      -2148.0619      609.38055     -213.92062     -15.353819    
  19745000   300.49156     -2152.3895      612.46469     -196.36236     -17.767418    
  19750000   316.66038     -2166.2435      610.9003      -139.48657      12.132192    
  19755000   301.63314     -2158.1962      558.82595     -250.70359      22.622353    
  19760000   292.11916     -2140.3396      620.16309     -214.04891     -1.1894266    
  19765000   301.00658     -2125.8707      620.09224     -159.91326     -7.3834761    
  19770000   309.77384     -2131.0898      604.55808     -141.46624      22.037353    
  19775000   295.55335     -2127.6624      631.28328     -174.89653     -2.1476487    
  19780000   290.34052     -2141.8748      603.24159     -240.45826      7.8947461    
  19785000   300.40193     -2122.6738      628.03503     -151.47708      9.2872238    
  19790000   295.36508     -2112.2367      583.85524     -207.74065      20.754449    
  19795000   301.11567     -2135.8766      619.78872     -169.73492      6.539331     
  19800000   304.49899     -2136.4158      594.18609     -180.74922     -15.632985    
  19805000   305.87189     -2157.4143      623.42939     -166.36591     -18.432649    
  19810000   296.74644     -2169.0648      587.89208     -254.35554      9.3304826    
  19815000   295.50833     -2131.3776      614.23015     -195.86618     -6.9864805    
  19820000   301.95564     -2164.0922      589.33144     -224.65217     -2.0777357    
  19825000   293.41653     -2169.6993      638.48528     -219.28562      5.5090214    
  19830000   300.33248     -2171.9054      629.55028     -199.50403      10.07388     
  19835000   303.0277      -2154.2342      586.91611     -212.416       -4.3542445    
  19840000   303.59892     -2155.6625      645.12056     -153.08593      5.4526644    
  19845000   296.51688     -2141.6807      609.74619     -206.14379     -2.1562112    
  19850000   302.7069      -2159.3403      582.0158      -223.85685     -13.007423    
  19855000   309.7477      -2160.3648      604.41919     -170.99699      7.7851041    
  19860000   307.74025     -2163.7491      616.86368     -170.91254      20.26434     
  19865000   295.26466     -2151.8768      621.39746     -210.28751      25.094058    
  19870000   306.80491     -2145.2781      588.93634     -184.55097      5.3934339    
  19875000   305.29985     -2163.0472      628.85189     -169.13404     -5.8582341    
  19880000   305.3566      -2134.4899      601.99078     -167.18411     -9.7121078    
  19885000   297.63793     -2147.9129      589.48922     -227.6205       6.5784454    
  19890000   311.88708     -2132.4363      602.32702     -135.5951       14.824959    
  19895000   302.51151     -2148.2485      627.43119     -168.22323      14.873498    
  19900000   294.89661     -2116.4002      589.54717     -208.30685      12.19609     
  19905000   295.78972     -2127.2394      583.88439     -220.81556      15.854246    
  19910000   304.14639     -2122.5366      611.79986     -150.83281      4.6844809    
  19915000   294.4394      -2133.6543      631.14276     -186.00968     -10.672623    
  19920000   308.12044     -2129.6237      588.75052     -163.20046     -16.957988    
  19925000   305.61436     -2102.9945      592.10915     -144.41783      6.3696189    
  19930000   307.29578     -2074.9931      610.18103     -90.826552     -3.4950835    
  19935000   291.55118     -2090.4996      620.31551     -166.59601      7.1182927    
  19940000   297.82112     -2105.0773      631.06223     -142.39278      10.35606     
  19945000   303.9898      -2117.5717      629.97144     -128.39648     -13.835242    
  19950000   294.55138     -2101.6373      596.71522     -187.91948     -21.87847     
  19955000   296.16467     -2116.0184      570.78699     -221.01554     -14.434596    
  19960000   294.89961     -2115.4621      655.80645     -141.09604      14.61932     
  19965000   303.30379     -2108.1619      620.44458     -131.58087      1.6697245    
  19970000   296.80208     -2092.9164      618.87737     -146.97304     -4.3887174    
  19975000   294.31492     -2108.4206      619.04308     -173.43226     -1.9688504    
  19980000   291.1084      -2098.0674      639.12086     -157.33828     -6.4761958    
  19985000   299.89017     -2079.6409      578.74859     -160.01884      0.91915321   
  19990000   296.17215     -2102.6184      612.59825     -165.77075     -1.2520359    
  19995000   294.01411     -2082.9592      588.26924     -180.08964     -2.8743317    
  20000000   295.03946     -2089.5272      601.9625      -168.37981      2.1854249    
  20005000   291.39289     -2076.2065      619.31761     -154.00864      0.24590387   
  20010000   295.02219     -2067.6798      584.63999     -163.93209      6.0089967    
  20015000   315.51309     -2084.2446      633.42395     -40.093804     -8.6026259    
  20020000   307.80014     -2090.9196      578.44252     -136.23641      5.3096028    
  20025000   287.13793     -2104.3785      596.95947     -223.56361      9.9996126    
  20030000   297.91672     -2073.4777      608.92615     -132.50185      11.33091     
  20035000   298.29046     -2124.9893      639.29549     -151.97298     -3.1937238    
  20040000   293.39619     -2110.5656      621.29006     -177.43814     -3.9366313    
  20045000   307.91569     -2139.6088      594.00594     -168.8456       0.31786174   
  20050000   303.13514     -2158.2773      641.96354     -160.93139      6.4458227    
  20055000   303.18832     -2143.0171      638.94028     -148.45663      14.635306    
  20060000   304.37184     -2130.2458      634.55449     -134.77938      13.707508    
  20065000   306.75177     -2133.9838      636.61569     -125.81492      17.681829    
  20070000   296.15862     -2139.9051      659.80557     -155.91059      8.3771921    
  20075000   303.90704     -2125.079       584.16163     -182.08364     -7.0797302    
  20080000   292.63364     -2114.5796      588.23507     -217.91657     -1.0167726    
  20085000   305.23506     -2122.7657      615.54238     -142.45173      0.1631034    
  20090000   303.11654     -2124.002       598.42824     -170.27448     -4.9816224    
  20095000   302.40744     -2130.2832      576.92915     -201.22535     -22.556192    
  20100000   298.71064     -2144.1088      596.70981     -211.79948      5.8267285    
  20105000   303.51654     -2146.3012      612.31563     -176.89783      4.1016315    
  20110000   295.27065     -2134.997       614.94711     -199.83125      2.9364812    
  20115000   297.55362     -2131.3999      598.63772     -202.336       -19.679494    
  20120000   307.22606     -2151.2948      616.77323     -160.84776      14.41895     
  20125000   311.02225     -2142.7248      650.09506     -101.98235     -7.5473567    
  20130000   298.8558      -2146.3065      645.74931     -164.30861     -9.0031623    
  20135000   302.34798     -2131.6674      644.60432     -135.20028     -2.8309755    
  20140000   293.11306     -2134.7337      607.19352     -216.96868     -9.1664474    
  20145000   286.04579     -2139.7884      569.49484     -291.3213      -14.778466    
  20150000   295.38649     -2110.201       630.17108     -159.29339      9.7528696    
  20155000   302.37744     -2122.2604      621.48382     -148.78203      0.99349023   
  20160000   295.22289     -2108.4444      650.90021     -137.53919      11.969593    
  20165000   302.49179     -2129.5133      652.84447     -124.16296     -18.80333     
  20170000   308.94428     -2124.3725      616.54069     -126.47546      9.8218799    
  20175000   300.66556     -2102.3349      588.89367     -169.10084      11.649161    
  20180000   310.78253     -2133.2481      580.67512     -162.99741      11.481371    
  20185000   310.60426     -2129.4092      614.59575     -126.03495      11.477705    
  20190000   301.58977     -2141.5365      633.09702     -159.96679      17.315302    
  20195000   290.00871     -2133.2294      619.6201      -216.91798     -21.862856    
  20200000   284.56777     -2114.3937      636.39022     -205.63979     -11.880831    
  20205000   294.51604     -2112.508       613.9387      -181.72477      9.3098166    
  20210000   299.58375     -2110.8322      578.09809     -193.23073     -14.683877    
  20215000   308.31941     -2093.2376      615.86899     -98.806222      0.82738228   
  20220000   298.57354     -2112.4744      595.76777     -181.7201       15.687232    
  20225000   292.85791     -2111.0488      565.17648     -236.44165      11.024985    
  20230000   296.23027     -2103.4248      615.8216      -163.09399      2.0665582    
  20235000   281.71201     -2117.0202      615.69056     -241.7347       20.175111    
  20240000   302.87809     -2108.4415      609.16005     -145.0484      -11.87922     
  20245000   297.27529     -2118.2655      650.47399     -138.60977     -8.0404036    
  20250000   309.68945     -2087.9423      641.30644     -61.947783     -8.1310815    
  20255000   302.37686     -2071.0912      618.16979     -100.9294       8.2139706    
  20260000   297.29812     -2099.9191      587.82196     -182.8133      -13.061532    
  20265000   296.83726     -2111.601       631.75828     -152.61953     -1.6657184    
  20270000   296.34156     -2104.1072      617.89192     -161.20844      18.942833    
  20275000   300.34715     -2087.7284      606.81177     -137.99988     -7.8025367    
  20280000   301.80699     -2103.2666      576.57737     -177.24523      16.844895    
  20285000   294.81114     -2102.4365      588.23746     -196.03498      18.0256      
  20290000   304.7026      -2096.2807      607.88033     -126.00952      9.2047759    
  20295000   291.60953     -2104.2409      568.55988     -231.83212     -3.5057403    
  20300000   299.47559     -2119.0371      612.35988     -167.65747     -2.7665562    
  20305000   302.74584     -2109.4219      612.81105     -142.96905      2.3500848    
  20310000   292.55149     -2089.9711      620.25265     -161.6578      -10.467366    
  20315000   291.74069     -2098.7509      611.41758     -182.89794      5.8303273    
  20320000   300.09248     -2112.6017      624.3795      -146.44418     -9.242946     
  20325000   298.14161     -2095.8766      614.55968     -148.26167      8.5920435    
  20330000   291.02048     -2120.58        591.38248     -227.9824       0.032695365  
  20335000   288.94828     -2098.6396      627.26924     -179.42045      13.03511     
  20340000   301.18052     -2063.3702      610.60563     -106.12168      6.8738781    
  20345000   303.60958     -2080.9063      593.26323     -130.13935      1.1102554    
  20350000   303.38097     -2114.8402      624.90175     -133.45688     -2.3288806    
  20355000   297.76841     -2077.9733      618.2992      -128.2875      -10.667747    
  20360000   305.90761     -2085.5119      609.51109     -108.22208      13.839377    
  20365000   301.30795     -2074.0428      625.49219     -101.33797     -1.9028438    
  20370000   292.68043     -2101.4025      631.09517     -161.67025     -0.055758662  
  20375000   308.03257     -2097.4725      607.00313     -113.1895       4.9232598    
  20380000   298.01648     -2090.2615      602.75594     -155.00981      1.9425392    
  20385000   306.65707     -2068.2981      626.6451      -70.523279     -8.8853372    
  20390000   309.33122     -2093.0062      620.56049     -89.359249     -11.344325    
  20395000   296.69234     -2062.996       594.52959     -141.8911       14.793533    
  20400000   297.27031     -2057.3505      606.92565     -121.26541      5.5016462    
  20405000   298.09723     -2058.5877      610.04589     -115.685        4.4255306    
  20410000   299.78722     -2093.3009      583.18102     -169.70675     -5.3271089    
  20415000   292.47868     -2078.3138      632.25125     -138.32744     -18.836632    
  20420000   299.88047     -2072.5549      616.47732     -115.24754      0.53062435   
  20425000   301.01059     -2080.5658      579.68836     -154.99441      12.435858    
  20430000   301.73591     -2085.5331      601.34665     -135.06032      5.0416611    
  20435000   305.56633     -2092.1398      660.74314     -65.143827      3.8445756    
  20440000   303.06849     -2105.0323      620.41758     -129.53027      3.6256316    
  20445000   295.71786     -2081.5627      609.08827     -150.25626     -8.443644     
  20450000   295.82112     -2124.7057      643.13811     -158.88773     -8.0652689    
  20455000   302.02837     -2116.7918      610.87866     -155.47931      8.815064     
  20460000   296.98101     -2119.3972      642.01906     -149.51215     -16.77905     
  20465000   294.31509     -2094.4742      648.80342     -129.72471      2.2943237    
  20470000   299.08802     -2118.921       599.3268      -182.30734     -5.5812963    
  20475000   306.51887     -2110.6258      632.12234     -107.99162      20.769954    
  20480000   300.78365     -2103.1018      603.4957      -154.73768      13.020427    
  20485000   298.834       -2114.8078      623.40382     -155.25287     -9.1492264    
  20490000   299.79525     -2127.6474      610.95164     -176.2467       19.556238    
  20495000   308.87035     -2118.436       603.41476     -133.99551     -7.2423434    
  20500000   303.57942     -2132.3711      630.62495     -144.37725     -9.0359478    
  20505000   297.81765     -2130.4745      652.45511     -146.41262      2.4916684    
  20510000   299.22041     -2132.7583      609.1572      -185.72223     -15.680239    
  20515000   303.87557     -2132.7705      591.97112     -182.10635      11.756576    
  20520000   303.66865     -2144.2348      613.66768     -172.79926      24.365924    
  20525000   298.47687     -2159.2875      619.44042     -205.29277      6.6557869    
  20530000   296.06369     -2148.4028      553.70223     -270.93614      7.951454     
  20535000   306.73653     -2170.4105      613.41527     -185.51021     -17.222443    
  20540000   307.116       -2148.1026      623.67906     -151.24187      7.9459138    
  20545000   299.72493     -2142.3042      627.26789     -174.90168      13.184849    
  20550000   307.21431     -2154.9371      605.1747      -176.14111     -7.489811     
  20555000   301.38134     -2174.8296      625.61039     -201.6784      -12.065978    
  20560000   302.2241      -2177.0605      644.58598     -181.16555     -10.349134    
  20565000   307.10556     -2190.9095      595.20345     -222.57103     -10.440631    
  20570000   301.84849     -2173.9353      642.09316     -182.21266     -5.2287009    
  20575000   298.93212     -2156.3275      588.39817     -231.3395       6.3500242    
  20580000   305.98796     -2153.9397      604.72365     -181.07806      23.032323    
  20585000   303.8862      -2162.011       621.7269      -181.54352      7.5944919    
  20590000   305.02572     -2153.7489      626.44998     -163.46334      15.001304    
  20595000   299.42745     -2158.5825      624.9579      -194.82008      8.6943355    
  20600000   313.41186     -2168.1336      600.44824     -166.35347     -2.1731296    
  20605000   297.98058     -2141.9385      612.01685     -197.58634     -3.3645754    
  20610000   311.11119     -2170.624       606.25949     -173.3195      -17.667565    
  20615000   293.26757     -2176.3226      583.69535     -281.36489     -4.0868496    
  20620000   295.31956     -2161.8043      630.53099     -210.83602      8.0077838    
  20625000   300.54191     -2174.561       617.58528     -213.18815     -0.055201717  
  20630000   283.8435      -2174.7776      634.27716     -271.37517      2.0774632    
  20635000   303.90832     -2164.9823      615.17805     -190.9648       12.416886    
  20640000   300.91074     -2184.0448      659.46137     -179.14679      14.863964    
  20645000   305.45042     -2151.2874      596.60295     -188.94993      14.220197    
  20650000   299.56577     -2152.6302      615.62618     -197.5811      -2.2072402    
  20655000   295.80868     -2163.5544      631.63706     -209.29311      3.3975096    
  20660000   304.88577     -2146.0811      597.7936      -185.07765     -3.7706256    
  20665000   306.45152     -2142.8104      591.16164     -181.43815      7.7393144    
  20670000   295.27961     -2143.8108      600.05134     -223.5008      -1.1267943    
  20675000   294.13935     -2128.1691      612.98476     -200.0241      -5.5530541    
  20680000   303.92131     -2154.5433      571.23732     -224.40843      1.9882211    
  20685000   302.06985     -2155.4874      621.71997     -183.14814     -4.6823344    
  20690000   298.92601     -2118.6274      624.78147     -157.28345      3.4150259    
  20695000   298.22913     -2140.0473      604.93515     -201.6655      -1.6721848    
  20700000   309.21595     -2126.309       669.89037     -73.847586     -10.883227    
  20705000   308.24959     -2149.9633      613.51186     -158.20126      10.618095    
  20710000   293.99308     -2130.7309      593.79132     -222.43323     -4.6701919    
  20715000   304.95826     -2141.6419      586.20387     -191.90409     -13.393133    
  20720000   300.47543     -2104.9629      605.51429     -155.95835     -5.2395662    
  20725000   295.06722     -2136.0945      586.48559     -230.29987     -7.4420419    
  20730000   288.90347     -2120.7003      629.6387      -199.31209      0.8937073    
  20735000   295.5747      -2136.129       583.77752     -230.77339     -2.2031488    
  20740000   296.33177     -2122.0894      588.51792     -208.60839      3.1484957    
  20745000   295.93058     -2144.8533      631.99207     -189.69198      3.2088581    
  20750000   291.12109     -2138.5962      603.86065     -233.07055     -10.023913    
  20755000   289.61202     -2140.6157      626.02864     -219.66946     -14.290029    
  20760000   298.76875     -2145.7657      627.195       -182.71133     -1.8051687    
  20765000   298.72662     -2145.1906      653.56591     -155.95375     -2.9572535    
  20770000   296.8525      -2140.0057      582.48889     -230.2254      -0.92587696   
  20775000   298.93874     -2143.3088      637.98029     -168.70914     -9.8877758    
  20780000   298.25631     -2137.1671      592.44411     -211.15485      17.346663    
  20785000   295.89799     -2130.8926      611.54589     -196.32314     -9.6286572    
  20790000   290.1067      -2138.8176      595.27382     -246.41432      11.210872    
  20795000   301.45322     -2157.4376      639.38236     -170.1931       8.3378184    
  20800000   299.17223     -2166.5913      607.22313     -221.70477      9.4895158    
  20805000   297.34829     -2165.4614      605.40024     -230.55298     -15.252881    
  20810000   295.51565     -2170.1598      618.57102     -230.27475      23.372179    
  20815000   301.40234     -2145.6955      573.97819     -224.08266     -10.985385    
  20820000   297.17086     -2205.0806      629.29142     -247.07437     -13.875917    
  20825000   302.67834     -2181.3803      596.96671     -231.07364      6.0351929    
  20830000   287.33401     -2171.4678      585.80867     -300.92696     -13.070108    
  20835000   304.09059     -2168.3961      622.2263      -186.51535      5.943865     
  20840000   306.04336     -2162.2118      617.04337     -176.78278      10.961517    
  20845000   303.54748     -2170.5278      591.9384      -221.36336      8.2835056    
  20850000   304.46336     -2170.1661      615.06267     -193.78228      7.5977087    
  20855000   294.06357     -2150.2876      638.91152     -196.55466      26.319815    
  20860000   306.61241     -2149.8304      616.15466     -162.74573      7.1633741    
  20865000   309.02474     -2151.7282      578.53962     -191.47248      2.4834358    
  20870000   294.81345     -2118.8145      604.46099     -196.17916     -4.5400881    
  20875000   302.11466     -2120.165       641.65556     -127.68979      0.47315245   
  20880000   284.3675      -2095.4739      629.68908     -194.31654      3.5722576    
  20885000   297.66435     -2119.6726      557.56296     -231.18828     -5.0585448    
  20890000   309.85627     -2101.868       622.48185     -93.952095     -10.739008    
  20895000   295.11242     -2128.8749      612.86269     -196.5011       13.983081    
  20900000   295.34212     -2099.3459      614.19288     -164.61489     -0.16213757   
  20905000   298.48498     -2095.1215      590.46744     -170.06352     -7.1585783    
  20910000   298.99532     -2098.6826      625.91177     -135.89849     -8.4341445    
  20915000   298.13693     -2104.7788      613.05428     -158.69013      4.4905743    
  20920000   306.57429     -2112.141       589.72024     -151.66119      2.4693756    
  20925000   299.40474     -2091.33        608.0118      -144.61517     -3.235679     
  20930000   296.89179     -2125.0631      577.09902     -220.49702      6.4978388    
  20935000   299.17324     -2087.6129      575.61581     -174.32917     -14.306737    
  20940000   295.82961     -2117.5834      611.45861     -183.40701      6.6242191    
  20945000   297.24812     -2136.8383      620.12934     -187.64866      15.298933    
  20950000   302.19662     -2124.5963      574.89961     -198.51059     -14.438705    
  20955000   296.75886     -2107.7046      602.52497     -178.30696      21.78269     
  20960000   314.30561     -2099.0825      597.84105     -95.913533      5.1178865    
  20965000   293.21247     -2101.9798      607.68072     -183.2831      -3.3174124    
  20970000   295.93248     -2098.2383      601.46005     -173.60048      9.7804751    
  20975000   299.92529     -2083.7302      641.49959     -101.20018     -26.245489    
  20980000   301.40074     -2098.5801      590.44063     -160.51197     -2.3353089    
  20985000   299.64636     -2114.4354      641.15897     -133.49311      12.475732    
  20990000   302.31637     -2112.5646      569.62281     -191.22034      23.598083    
  20995000   300.09363     -2108.0623      636.85818     -129.42099      13.589414    
  21000000   300.54276     -2122.3407      615.87675     -162.67267     -18.217388    
  21005000   305.4984      -2115.5778      587.59269     -162.03602      9.9325108    
  21010000   299.01147     -2117.7497      609.02507     -171.78005      13.029881    
  21015000   297.48559     -2137.6569      643.71775     -163.81715      5.6049527    
  21020000   304.12916     -2141.7211      610.77006     -171.12411     -3.8817287    
  21025000   303.903       -2145.6427      605.67799     -181.14906      19.199399    
  21030000   307.34025     -2131.9924      618.44482     -139.3632      -18.0424      
  21035000   296.87081     -2148.467       627.89932     -193.19446      17.668947    
  21040000   300.54581     -2142.6224      606.56869     -192.2487       8.2371434    
  21045000   300.66255     -2119.5075      634.44511     -140.73547     -11.248749    
  21050000   302.93612     -2144.5011      630.61217     -159.39639      2.9043811    
  21055000   290.33139     -2130.7889      640.60107     -192.05379      6.0567477    
  21060000   310.45309     -2112.4174      585.63218     -138.68271      12.635801    
  21065000   301.1893      -2128.7862      573.99859     -208.10545     -10.393615    
  21070000   311.37283     -2107.965       604.67782     -111.07234     -15.875368    
  21075000   307.27498     -2095.5414      547.31791     -174.33099      15.154351    
  21080000   300.93686     -2109.3337      625.05624     -138.72399     -8.1630168    
  21085000   291.82027     -2111.7512      578.6945      -228.26552     -2.0793062    
  21090000   300.05339     -2076.9786      580.65278     -154.72253     -9.7554448    
  21095000   297.45689     -2111.8215      595.93653     -185.89125      4.6766288    
  21100000   298.16039     -2101.3682      600.43514     -167.79384      18.167133    
  21105000   299.65927     -2118.5842      608.543       -170.20021     -5.7160452    
  21110000   301.15144     -2098.0733      612.79153     -138.76891     -16.976031    
  21115000   297.03832     -2096.0079      622.26365     -145.62204     -7.1738584    
  21120000   298.53399     -2103.0915      599.36757     -168.91423      26.564593    
  21125000   310.35319     -2113.9605      629.07331     -97.231372     -5.8602843    
  21130000   292.36076     -2065.0436      575.76676     -182.06896      25.207097    
  21135000   301.44981     -2088.782       600.4621      -140.47296      12.012085    
  21140000   305.5161      -2081.3502      634.2939      -81.028116      7.9123175    
  21145000   305.91823     -2061.5618      604.09745     -89.638103     -12.94676     
  21150000   301.42235     -2074.113       612.08747     -114.30138     -3.5243725    
  21155000   308.28036     -2079.803       623.93097     -77.48428       6.4479296    
  21160000   293.40787     -2085.5713      616.54346     -157.13815     -18.988932    
  21165000   289.49633     -2058.0586      610.38553     -153.27272      0.68350134   
  21170000   297.91325     -2076.5904      596.85122     -147.70497      4.1636638    
  21175000   305.27954     -2083.5564      598.65205     -119.9339      -16.016414    
  21180000   306.28396     -2108.4753      615.82179     -123.19201     -0.50968832   
  21185000   303.98486     -2089.7521      572.73418     -157.83624      0.19070543   
  21190000   302.1262      -2097.7975      576.85884     -170.06742      14.909912    
  21195000   298.52982     -2125.0968      599.32038     -190.98542     -0.084117501  
  21200000   300.44865     -2111.2274      573.45993     -194.39694      0.40289963   
  21205000   295.52838     -2118.8786      590.18931     -207.31839     -9.8656173    
  21210000   294.85939     -2104.6266      619.67637     -166.57048     -21.053205    
  21215000   299.54472     -2115.9027      606.28533     -170.28849      10.830214    
  21220000   293.3494      -2086.1979      607.20184     -167.36783     -4.7399932    
  21225000   300.88374     -2096.9244      602.92772     -148.68075     -1.9440683    
  21230000   293.58512     -2125.7856      602.38788     -210.7155      -1.4765062    
  21235000   307.4898      -2125.012       621.99985     -128.15915     -11.301451    
  21240000   306.43908     -2128.7167      597.34478     -161.21691     -14.940699    
  21245000   299.34227     -2120.3164      590.69977     -191.19297     -5.3530101    
  21250000   295.06248     -2117.1159      631.1654      -166.66271     -11.396712    
  21255000   311.3302      -2120.9132      597.34005     -131.54885      9.0016275    
  21260000   284.46359     -2126.643       611.75117     -242.994        29.622613    
  21265000   292.89564     -2102.1229      564.13724     -228.3863       26.187342    
  21270000   306.28018     -2145.6715      601.25977     -174.96717      10.672838    
  21275000   298.39278     -2111.8118      609.98656     -167.6469      -15.814264    
  21280000   303.454       -2124.5168      620.01694     -147.69177      3.1146118    
  21285000   297.53896     -2128.9362      604.09838     -194.47714     -10.855472    
  21290000   296.77431     -2122.0655      592.56246     -202.56126      2.3131582    
  21295000   300.31356     -2158.3818      598.69364     -216.92165      13.583972    
  21300000   300.56917     -2120.904       618.30366     -158.69092     -2.6512229    
  21305000   312.68912     -2137.6976      618.14679     -121.45053      9.359754     
  21310000   295.42112     -2132.302       623.22048     -188.19019      7.1256836    
  21315000   307.69168     -2126.5282      617.41975     -133.35278      16.935849    
  21320000   299.01982     -2127.7227      622.38803     -168.3527       5.5674259    
  21325000   304.61352     -2148.2311      608.50978     -177.72877      13.467093    
  21330000   302.32487     -2176.3806      600.30634     -224.31474      2.8112623    
  21335000   298.98001     -2163.5663      612.71105     -214.05133      19.296146    
  21340000   289.44696     -2157.4442      604.23983     -259.02472     -13.905609    
  21345000   289.62246     -2145.4389      618.94995     -231.52465      4.6810604    
  21350000   303.75598     -2160.374       584.6568      -217.55892      10.647761    
  21355000   296.89994     -2127.094       616.84681     -182.74372      20.302798    
  21360000   295.28173     -2132.361       606.81511     -205.2778      -12.248839    
  21365000   291.04467     -2149.7303      602.63983     -245.76713     -3.5869241    
  21370000   297.95877     -2180.5292      638.10847     -210.183       -13.577372    
  21375000   294.69815     -2165.3821      611.21649     -236.50677     -6.1859359    
  21380000   296.63957     -2155.2592      639.60061     -189.31926     -2.5270581    
  21385000   293.94414     -2174.6949      582.26634     -278.14109      1.1062492    
  21390000   300.44245     -2169.0974      581.48026     -244.27433     -16.657278    
  21395000   296.03054     -2175.4526      598.99221     -252.84414      4.3709743    
  21400000   304.56969     -2160.7239      595.02558     -203.90173      3.0367057    
  21405000   299.90156     -2162.3834      606.57291     -214.88613     -7.9537945    
  21410000   294.00167     -2166.6984      618.96038     -233.19334      24.19954     
  21415000   299.88206     -2176.0337      589.49701     -245.69949     -2.049778     
  21420000   298.03906     -2175.3442      610.53682     -232.21059      8.4016223    
  21425000   297.74218     -2170.111       608.10915     -230.73247      8.278467     
  21430000   302.62102     -2170.2664      637.67462     -179.50816     -13.14784     
  21435000   303.38916     -2167.5211      652.61422     -158.38868     -11.267799    
  21440000   298.63938     -2178.1144      623.72207     -219.11145     -10.213852    
  21445000   309.22709     -2160.0533      651.16949     -126.26296      4.5186153    
  21450000   297.40088     -2166.4511      592.44314     -244.26462     -0.2682305    
  21455000   305.25461     -2156.9312      596.29306     -195.77908     -12.647766    
  21460000   293.39907     -2161.0702      612.79224     -236.42762      13.639463    
  21465000   303.26817     -2158.9982      645.37865     -157.64235      0.53046425   
  21470000   303.63438     -2160.4466      596.18988     -206.64211      6.6068509    
  21475000   309.31351     -2168.1649      620.95566     -164.20205      11.484152    
  21480000   300.76522     -2154.2751      611.86533     -197.62374      6.4138188    
  21485000   307.80189     -2143.9607      606.2144      -161.49781     -6.6695318    
  21490000   305.18431     -2159.2103      610.4892      -184.17647      7.4379501    
  21495000   303.43747     -2139.6211      637.2093      -145.6776      -1.3080077    
  21500000   302.59968     -2159.31        653.0683      -153.25343      7.4601738    
  21505000   308.11497     -2158.9656      594.20849     -187.1088      -22.2198      
  21510000   303.93083     -2153.0986      612.47727     -181.68122     -4.7790227    
  21515000   299.24872     -2171.1002      588.32588     -244.76898      11.98344     
  21520000   312.40836     -2186.3386      591.12141     -198.37221      27.178879    
  21525000   313.25925     -2169.0922      625.5318      -142.91096     -14.991032    
  21530000   297.48953     -2174.1075      617.8207      -226.14712     -2.9459132    
  21535000   285.76183     -2180.0603      614.76807     -287.58968     -7.9526682    
  21540000   301.94283     -2178.198       640.02131     -188.12533     -11.264222    
  21545000   296.73533     -2163.9743      629.72685     -207.47991     -6.3166937    
  21550000   295.13524     -2194.4295      610.88624     -263.93016      11.803644    
  21555000   299.8613      -2214.812       626.06011     -248.00757      10.984567    
  21560000   297.65657     -2213.7319      634.92473     -247.92067     -19.905415    
  21565000   308.46941     -2172.5695      599.32964     -194.00685      4.2793495    
  21570000   286.71942     -2179.8565      609.60671     -288.26562      23.966822    
  21575000   306.97286     -2180.2296      616.03517     -191.65273      6.4125279    
  21580000   308.10191     -2186.3306      621.54809     -187.19257     -20.794933    
  21585000   311.84991     -2172.7452      613.57482     -164.82237      4.6071076    
  21590000   305.47986     -2181.2236      621.78896     -193.56847     -8.2340556    
  21595000   307.0563      -2179.7685      617.05154     -189.80219     -2.6164962    
  21600000   303.48161     -2188.4632      610.46815     -221.06345      1.6704889    
  21605000   287.34162     -2192.1325      600.82692     -306.53945     -9.06122      
  21610000   286.98079     -2179.3708      599.0715      -297.14648      1.0241981    
  21615000   307.3224      -2185.8246      613.32167     -198.39842     -15.16149     
  21620000   295.95903     -2195.4621      627.26661     -244.89905     -9.2650927    
  21625000   302.54668     -2170.9819      610.39487     -207.83575      2.1222988    
  21630000   312.20088     -2178.6737      629.17111     -153.58526      17.421487    
  21635000   299.98852     -2168.6024      572.66146     -254.62776      4.8929311    
  21640000   293.35096     -2152.4728      640.62961     -200.20799      26.431569    
  21645000   298.2719      -2155.7361      631.2275      -190.87076      0.91104746   
  21650000   303.56961     -2146.5783      578.8852      -210.36814     -14.683443    
  21655000   294.10036     -2126.0129      626.5113      -184.51566     -2.3126065    
  21660000   304.78227     -2141.4733      590.51904     -188.20719     -8.3659455    
  21665000   299.98261     -2127.0126      599.5579      -186.16796     -19.077938    
  21670000   307.19116     -2123.5779      627.80723     -122.25294      6.078212     
  21675000   304.47292     -2135.7205      594.68621     -179.67034      0.47956262   
  21680000   306.92091     -2125.6501      609.71689     -143.62382     -9.0692627    
  21685000   286.62811     -2141.6381      623.55361     -236.5086       12.515814    
  21690000   297.71042     -2149.6864      588.7957      -229.76341     -3.0839254    
  21695000   299.05759     -2144.2449      585.41696     -221.67716      0.4841174    
  21700000   302.19659     -2144.8012      615.36407     -178.25116     -0.37100175   
  21705000   309.14474     -2135.4751      628.7079      -124.51453      4.9280672    
  21710000   292.01654     -2122.3931      585.48128     -231.24302      14.550802    
  21715000   302.31637     -2142.8635      611.52491     -179.6171      -17.17821     
  21720000   300.99605     -2117.5049      605.60886     -166.07798     -11.99779     
  21725000   295.51114     -2119.0211      614.685       -183.04227     -1.616675     
  21730000   304.04266     -2128.2034      639.86515     -128.89816     -9.7653176    
  21735000   316.95122     -2128.7712      597.01702     -114.59711     -4.704772     
  21740000   301.24015     -2136.5531      597.66669     -191.97694      21.026504    
  21745000   304.65482     -2132.1224      624.37845     -145.5667       17.191718    
  21750000   296.77748     -2141.2876      633.59178     -180.73987      8.0835488    
  21755000   294.06771     -2128.0971      604.57081     -208.68633     -4.8255221    
  21760000   297.91827     -2131.9715      614.07622     -185.83859     -9.7209293    
  21765000   304.97689     -2128.012       610.25107     -154.14371      2.5780463    
  21770000   297.9336      -2132.2313      603.44932     -196.65674     -0.0023738841 
  21775000   302.13697     -2121.7052      632.07696     -138.7089       2.4515887    
  21780000   301.19247     -2118.4774      653.17626     -118.60479      15.705649    
  21785000   301.55413     -2094.5304      622.54343     -123.67359      13.347756    
  21790000   310.41288     -2125.1842      599.90585     -137.35561      12.36037     
  21795000   296.34517     -2131.29        614.34294     -191.92412     -12.967528    
  21800000   291.12446     -2100.7095      624.91958     -174.10984     -12.291078    
  21805000   298.74363     -2098.2657      601.55897     -160.95973      20.359346    
  21810000   303.28258     -2059.646       615.57709     -88.027304      6.8001257    
  21815000   297.23502     -2089.4371      571.45941     -188.97598     -17.458097    
  21820000   291.80735     -2084.9175      602.41588     -177.76819      8.9988809    
  21825000   291.73715     -2102.6181      625.1199      -173.07867      14.211083    
  21830000   296.32972     -2097.019       627.21531     -144.84978      7.9906227    
  21835000   297.5752      -2089.434       580.02638     -178.88491     -7.7000292    
  21840000   300.43479     -2077.797       575.29869     -159.18975      25.84734     
  21845000   295.21053     -2076.1639      618.80237     -137.41174      1.0866486    
  21850000   290.44065     -2083.7169      631.02888     -154.0654      -1.3441621    
  21855000   306.63616     -2070.7963      604.13837     -95.621742      25.702475    
  21860000   287.06234     -2065.9433      650.06571     -132.3601       5.7752669    
  21865000   293.67146     -2041.4559      588.2503      -140.13738     -11.385755    
  21870000   308.80448     -2080.1296      604.49541     -94.902986     -18.250438    
  21875000   296.42342     -2068.9445      608.88451     -134.68707      6.5990577    
  21880000   290.63626     -2072.6721      605.05666     -168.11816      15.177361    
  21885000   294.65285     -2072.6324      626.70321     -128.47297     -9.7358511    
  21890000   299.9706      -2086.166       617.5762      -127.3567       30.622881    
  21895000   297.10972     -2067.9848      636.81697     -102.7263      -7.6417914    
  21900000   309.99626     -2057.9633      615.82391     -56.079418     -5.7767277    
  21905000   302.80611     -2065.8126      642.70987     -69.191448      9.9625264    
  21910000   306.30268     -2074.935       626.38038     -79.009449     -8.3500044    
  21915000   300.16084     -2048.3581      655.5835      -50.690921     -5.7184719    
  21920000   291.33868     -2064.4582      646.48418     -115.33609     -9.134458     
  21925000   296.36425     -2077.8441      603.139       -149.59676      15.835014    
  21930000   291.68161     -2054.9055      625.83379     -124.9005      -18.836944    
  21935000   297.02182     -2072.5519      629.89918     -114.60431      28.902629    
  21940000   297.16344     -2051.2267      635.25312     -87.29187       7.9001732    
  21945000   299.87355     -2079.8526      583.23693     -155.81652      7.8820094    
  21950000   307.20629     -2077.4323      588.07958     -115.7673       15.722445    
  21955000   298.94532     -2071.224       611.41183     -123.16341     -17.937415    
  21960000   303.95036     -2063.8112      595.62744     -109.15635      4.0795447    
  21965000   293.91746     -2043.4844      610.97283     -118.34341      18.676091    
  21970000   299.48883     -2052.7126      618.21246     -95.421218      7.911611     
  21975000   295.76487     -2051.0691      615.92799     -112.71271     -8.4349299    
  21980000   293.85069     -2073.0356      605.68235     -153.48362      0.51444771   
  21985000   297.68927     -2055.4289      623.26421     -101.13194      9.5200754    
  21990000   297.77897     -2063.6301      629.69631     -102.49993      2.0418434    
  21995000   302.2454      -2062.9356      615.67028     -95.861088     -18.032069    
  22000000   302.01926     -2058.2942      646.48054     -61.420615     -8.813938     
  22005000   307.13519     -2035.865       646.85134     -15.746205     -2.9348532    
  22010000   293.57544     -2043.1014      650.99328     -79.469203     -10.941431    
  22015000   310.83767     -2063.0658      636.63107     -36.612668      22.226348    
  22020000   300.11525     -2048.9057      633.637       -73.388857     -15.242954    
  22025000   304.56026     -2053.4974      649.66111     -42.081865     -16.447444    
  22030000   306.21474     -2071.1704      613.17594     -88.842489     -10.526521    
  22035000   299.61845     -2079.7771      630.47561     -109.643        13.526958    
  22040000   294.82953     -2050.6886      621.9943      -110.44805     -13.688079    
  22045000   293.94102     -2085.2307      621.90909     -149.04806      1.0993036    
  22050000   292.74965     -2064.0316      593.08765     -161.99731      23.21968     
  22055000   293.31246     -2078.7753      615.68558     -151.62659      14.432762    
  22060000   294.32684     -2084.8913      614.44535     -154.4474       19.976328    
  22065000   302.63431     -2085.3571      668.74951     -63.464442      2.3143943    
  22070000   306.51557     -2085.5494      610.94826     -104.10409      1.392047     
  22075000   304.63734     -2052.6411      624.39671     -66.145274     -17.50596     
  22080000   295.59987     -2077.9161      599.12852     -157.09703      1.2308651    
  22085000   299.06878     -2106.0636      590.64647     -178.21634      7.1837115    
  22090000   296.99331     -2064.4327      630.14963     -106.3621      -7.7976789    
  22095000   305.47221     -2078.8883      624.64271     -88.413696     -15.908737    
  22100000   306.00692     -2123.0581      634.71704     -120.11831      12.730282    
  22105000   307.95303     -2103.6865      644.91763     -81.844596     -6.8037344    
  22110000   303.19882     -2110.2661      640.56631     -114.03264      2.7383245    
  22115000   296.84683     -2109.6632      602.66166     -179.73546      0.50695944   
  22120000   303.59824     -2132.2263      591.85065     -182.92259     -5.5557965    
  22125000   295.98276     -2111.3202      616.65287     -171.26479      6.4527289    
  22130000   298.50617     -2114.9713      644.62308     -135.66296     -16.353477    
  22135000   301.21626     -2107.0362      604.66909     -155.56442     -0.39619162   
  22140000   302.06617     -2135.5656      571.52009     -213.44265     -1.6032808    
  22145000   299.28825     -2131.9891      571.6447      -222.16227     -0.68946614   
  22150000   296.4342      -2119.6217      641.0593      -153.14132     -0.98548326   
  22155000   299.78539     -2124.575       599.21703     -184.95305      5.1076278    
  22160000   305.06467     -2107.1619      585.3206      -157.8315       19.361627    
  22165000   304.93069     -2109.8651      621.3318      -125.12264      6.8176757    
  22170000   301.95688     -2095.8321      592.86316     -152.85481      17.335141    
  22175000   294.45031     -2109.2909      614.19177     -178.54844     -1.3120283    
  22180000   302.16155     -2075.493       602.61362     -121.85012      20.642836    
  22185000   302.58631     -2060.5569      612.39745     -95.230971      21.688092    
  22190000   290.46843     -2087.1616      604.98997     -183.42481     -11.468322    
  22195000   310.16799     -2060.6894      592.77554     -81.086038     -12.330566    
  22200000   300.70134     -2107.2621      621.06524     -141.69649      1.06675      
  22205000   292.86045     -2065.3138      611.8111      -144.06063     -15.916324    
  22210000   292.88647     -2087.5906      597.82347     -180.2087       18.135384    
  22215000   288.96611     -2075.3727      581.30518     -202.03787      1.6553481    
  22220000   289.99192     -2082.6244      626.02589     -159.98223     -7.0520487    
  22225000   296.44964     -2069.1778      630.07386     -113.6139       0.59038348   
  22230000   309.71602     -2068.8632      638.92203     -45.134279      5.0959132    
  22235000   307.17139     -2090.2026      593.75548     -123.0178      -9.5243394    
  22240000   298.9887      -2095.4416      637.2669      -121.33192      25.791761    
  22245000   290.18824     -2083.658       601.47198     -184.69196      4.996102     
  22250000   307.6195      -2098.8801      605.40152     -118.04565     -6.4313108    
  22255000   303.17595     -2067.1387      602.32391     -109.24994      4.9537972    
  22260000   284.22449     -2077.3425      618.11725     -188.39641      4.2661953    
  22265000   300.19354     -2053.4774      615.47586     -95.771622     -11.090015    
  22270000   302.79027     -2071.2269      618.90494     -98.481515      19.649708    
  22275000   300.86733     -2062.6269      630.37892     -87.005399      6.371798     
  22280000   298.37487     -2041.6879      629.67698     -77.912726      7.2364163    
  22285000   299.39299     -2039.9128      591.88169     -109.38063      4.2634863    
  22290000   284.90301     -2048.4893      619.98942     -154.63729     -4.6654786    
  22295000   306.47673     -2069.9663      614.04338     -85.599569      5.5707811    
  22300000   288.13767     -2054.3641      623.22312     -142.81548     -6.5765259    
  22305000   300.20136     -2041.4163      603.5258      -95.625688     -10.323414    
  22310000   290.95229     -2033.0304      585.74431     -146.37589     -5.6451047    
  22315000   298.79159     -2054.6239      592.7942      -125.86823     -5.0749804    
  22320000   300.65046     -2042.9769      660.12168     -38.58229      -4.1311433    
  22325000   298.71671     -2069.4105      624.9409      -108.84289     -10.630745    
  22330000   311.53717     -2088.8652      612.77161     -83.143865      11.139195    
  22335000   300.86528     -2096.8239      650.42769     -101.16284      1.2245867    
  22340000   290.55596     -2076.371       612.12265     -165.11017     -6.0888189    
  22345000   302.44075     -2094.3768      607.50387     -134.59527      0.72311439   
  22350000   304.34546     -2105.4389      610.25463     -134.39024     -32.11997     
  22355000   288.96394     -2066.3521      623.99655     -150.33567      16.688844    
  22360000   305.09849     -2085.9569      627.70895     -94.086946      17.187328    
  22365000   304.79492     -2056.7842      620.09808     -73.882498      7.4562458    
  22370000   296.27981     -2077.3583      624.59171     -128.03586      6.2725037    
  22375000   304.81761     -2088.4658      586.24731     -139.31334      16.141808    
  22380000   306.63878     -2105.7781      615.22206     -119.50813      0.49553105   
  22385000   295.44457     -2101.3248      600.21874     -180.10985      25.474425    
  22390000   302.76424     -2083.5479      633.6057      -96.218154      14.968973    
  22395000   298.81444     -2095.3899      607.31913     -152.00714      5.2325845    
  22400000   290.34311     -2067.7165      629.34717     -140.18284     -0.48374188   
  22405000   300.0569      -2095.5499      617.10707     -136.82389      1.0175331    
  22410000   304.35848     -2083.6659      618.0654      -104.74828     -7.5177607    
  22415000   298.48762     -2101.4273      617.04983     -149.77516     -24.796713    
  22420000   301.92149     -2110.6845      602.30307     -158.42553     -3.81578      
  22425000   296.18581     -2087.6913      610.54378     -152.83707     -3.909394     
  22430000   306.2849      -2084.3481      581.58381     -133.29864      1.9208849    
  22435000   295.45317     -2122.1307      601.54641     -199.54957     -15.35778     
  22440000   305.48945     -2090.472       613.8042      -110.75875      17.068374    
  22445000   299.33058     -2088.4694      614.76227     -135.33574     -1.960367     
  22450000   305.91406     -2070.7393      612.80687     -90.124878     -4.337136     
  22455000   297.38703     -2091.3638      623.19953     -138.48288      13.151427    
  22460000   299.19473     -2091.6434      605.98105     -147.8984      -17.096522    
  22465000   295.11247     -2115.3596      607.63857     -188.20974     -8.7617158    
  22470000   294.93449     -2103.2252      613.72397     -170.7857       0.77220271   
  22475000   299.66398     -2096.188       609.53175     -146.79418     -14.869618    
  22480000   300.44057     -2117.6275      624.84983     -149.44333      0.30848846   
  22485000   295.43259     -2100.7414      628.79585     -151.00284      9.7495904    
  22490000   303.53451     -2100.1678      638.2215      -104.77818     -14.682921    
  22495000   293.27325     -2097.8498      601.50628     -185.05574     -1.2737937    
  22500000   298.74508     -2115.9727      548.01057     -232.20865      20.565974    
  22505000   291.35472     -2084.2708      594.69775     -186.86343     -2.5965697    
  22510000   299.40917     -2096.2574      621.49669     -136.03787      9.0622567    
  22515000   299.96606     -2093.5349      576.34801     -175.97418      7.7566416    
  22520000   299.25841     -2049.69        622.45814     -89.183124     -10.821585    
  22525000   302.95794     -2073.7435      601.93966     -117.21366     -6.2789056    
  22530000   298.60451     -2067.6591      594.94939     -137.58473      7.1122925    
  22535000   297.31539     -2071.6367      606.15995     -136.11564      12.822641    
  22540000   307.60357     -2043.3545      614.11035     -53.882387      5.5249564    
  22545000   293.21407     -2043.0982      616.41972     -115.65528     -6.7879389    
  22550000   292.41412     -2074.3648      636.14985     -130.76854     -5.1301338    
  22555000   296.73849     -2035.8734      615.69791     -93.393865     -20.06501     
  22560000   286.61587     -2076.9713      611.58657     -183.86348      0.47886303   
  22565000   288.42544     -2068.1542      622.77262     -155.76934      2.235427     
  22570000   301.03939     -2050.4124      574.55404     -129.84648      24.07908     
  22575000   306.15487     -2084.8076      607.64032     -108.28304     -8.551146     
  22580000   305.12291     -2079.9194      613.42232     -102.22694      8.0728207    
  22585000   302.81999     -2098.8667      593.15824     -151.7352      -2.2905011    
  22590000   303.87938     -2064.583       633.48621     -72.386696      17.617077    
  22595000   305.00378     -2053.5112      612.76379     -77.00988       4.8697186    
  22600000   299.92313     -2050.3482      601.63253     -107.69487     -20.260444    
  22605000   284.1305      -2068.4867      605.78154     -192.29657      17.057828    
  22610000   290.71399     -2067.7999      626.24103     -141.71415      17.694317    
  22615000   290.20602     -2086.8714      587.30494     -201.99291      2.8482775    
  22620000   299.84579     -2079.1291      668.43933     -70.014724     -0.69233617   
  22625000   293.56351     -2076.4115      617.88042     -145.94549      29.103729    
  22630000   299.23182     -2061.6033      579.1442      -144.52929      1.0753163    
  22635000   289.56944     -2075.5053      600.6472      -180.13084     -6.9042792    
  22640000   307.15666     -2069.8792      616.68849     -79.827189     -1.4037842    
  22645000   292.197       -2081.8892      623.04432     -152.36921     -0.40046227   
  22650000   290.73844     -2096.1239      586.12393     -210.04587      10.187674    
  22655000   291.51537     -2101.0428      619.19        -178.42486      8.3200357    
  22660000   294.4472      -2099.9841      633.16518     -150.28219     -0.80452244   
  22665000   306.00398     -2101.5726      597.23694     -136.12606     -6.505133     
  22670000   293.57536     -2079.0435      625.67373     -140.73118     -6.7664894    
  22675000   291.17567     -2073.7549      625.22728     -146.61853     -8.1363903    
  22680000   294.00622     -2101.516       627.95022     -159.00071      11.888845    
  22685000   304.1174      -2125.1844      641.35601     -124.05407      8.8769432    
  22690000   301.85521     -2113.7761      616.27        -147.84654      17.435036    
  22695000   302.70344     -2140.8896      620.32679     -167.1106      -4.684977     
  22700000   293.76152     -2122.1323      625.02006     -183.64129     -9.298646     
  22705000   299.75647     -2139.2167      592.57497     -206.36607      18.637692    
  22710000   290.61963     -2114.7023      660.72254     -154.55689     -8.0211058    
  22715000   297.94737     -2115.089       626.15689     -156.74539     -11.952446    
  22720000   298.71023     -2094.4178      627.93431     -130.88578      5.6951516    
  22725000   300.01199     -2096.0323      589.38516     -165.229       -8.6223623    
  22730000   304.34156     -2080.2527      612.36442     -107.11173     -5.9983845    
  22735000   292.3759      -2080.6492      630.33893     -143.03468      2.9618184    
  22740000   298.50541     -2071.5348      572.86792     -163.98496      17.214506    
  22745000   302.97762     -2089.7701      652.4958      -82.596157     -20.505101    
  22750000   287.34692     -2080.2603      612.19906     -183.27135     -3.756686     
  22755000   293.79746     -2104.5693      612.79102     -178.14662     -1.1129209    
  22760000   305.26106     -2097.1185      618.6341      -113.59655     -4.9287597    
  22765000   295.32246     -2071.3861      609.97391     -140.96194      17.565532    
  22770000   302.01692     -2078.2579      595.58269     -132.29261     -1.0573838    
  22775000   302.59324     -2116.518       594.80532     -168.75325      13.197465    
  22780000   305.50574     -2112.8309      620.19461     -126.65443     -19.674165    
  22785000   292.59736     -2109.4444      607.6909      -193.48776      6.8501945    
  22790000   313.51412     -2126.038       583.91261     -140.33638     -3.3614115    
  22795000   305.96597     -2110.9372      604.51195     -138.38559      12.272881    
  22800000   305.90895     -2076.2475      581.45828     -127.00455     -5.768427     
  22805000   297.79579     -2085.4781      620.5951      -133.37399     -9.9265665    
  22810000   309.32026     -2102.1088      583.62103     -135.45033     -15.041936    
  22815000   295.9667      -2100.682       630.88761     -146.46356      5.2325451    
  22820000   288.55178     -2063.6424      634.29223     -139.17311     -9.2146897    
  22825000   298.28542     -2072.0932      610.27279     -128.12213      8.3769934    
  22830000   298.10759     -2085.3493      621.27908     -131.16709      17.930727    
  22835000   298.37276     -2055.0918      633.56887     -87.434163     -2.3346225    
  22840000   301.5265      -2090.5943      606.37174     -136.0327       4.8574441    
  22845000   296.98684     -2089.4797      596.34041     -165.24721     -10.176153    
  22850000   302.54332     -2090.145       609.4794      -127.9294       28.146295    
  22855000   303.97039     -2064.2859      609.70763     -95.46129       14.130855    
  22860000   303.4888      -2066.3948      609.15948     -100.27164     -10.629503    
  22865000   301.40921     -2086.7188      584.60632     -154.44709      4.271955     
  22870000   288.01114     -2080.9607      623.35295     -169.84801     -13.694847    
  22875000   302.13704     -2075.4422      629.86065     -94.661829      18.534168    
  22880000   313.63425     -2081.8742      584.22165     -95.326405      17.793885    
  22885000   296.44682     -2088.6175      605.35626     -157.78378     -6.8010408    
  22890000   300.25727     -2079.906       589.28913     -148.10204     -1.8770175    
  22895000   302.4504      -2070.3534      612.34671     -105.68588      13.086462    
  22900000   296.01079     -2060.6359      611.87948     -125.22851     -16.178619    
  22905000   305.55408     -2093.0095      624.98446     -101.82705      7.4364442    
  22910000   293.53067     -2098.9652      597.60538     -188.92107     -8.7999345    
  22915000   314.97684     -2093.0989      619.99376     -64.7759        11.86444     
  22920000   292.11955     -2069.4588      653.82376     -109.50576     -10.380796    
  22925000   297.58934     -2079.8533      614.70875     -134.55858     -3.6042531    
  22930000   289.33389     -2067.3968      593.4346      -180.28816     -28.254228    
  22935000   288.43926     -2086.7863      613.87535     -183.237       -8.5314803    
  22940000   300.24539     -2104.7042      583.59737     -178.64514     -2.9612126    
  22945000   306.1993      -2091.2493      631.91108     -90.255319     -10.091597    
  22950000   298.16405     -2082.6662      594.86452     -154.6461       5.5799314    
  22955000   304.5229      -2111.3407      623.32623     -126.42709      23.229677    
  22960000   298.03311     -2104.2007      631.90417     -139.72637      5.575844     
  22965000   299.27213     -2102.305       588.43449     -175.76044      23.902492    
  22970000   292.32303     -2113.9545      623.13338     -183.78197      11.085399    
  22975000   301.76917     -2135.4048      615.50652     -170.62338     -14.290422    
  22980000   299.83738     -2136.2318      602.0198      -193.57452      22.036919    
  22985000   299.60995     -2100.9896      641.81004     -119.55906     -15.672847    
  22990000   304.3318      -2110.8455      597.12685     -152.98569     -1.3536222    
  22995000   302.25785     -2105.9923      619.93279     -134.59963     -15.071186    
  23000000   313.79121     -2096.9809      623.29861     -70.654267      4.3340952    
  23005000   292.66942     -2106.0496      589.63316     -207.82851      22.375098    
  23010000   302.72843     -2082.6454      623.96384     -105.11762      11.662006    
  23015000   301.28854     -2090.7547      619.7387      -123.89016      1.1088828    
  23020000   305.25955     -2101.0255      635.21991     -100.92449     -2.6763634    
  23025000   295.51102     -2088.232       626.44586     -140.49279      8.3855915    
  23030000   291.20908     -2074.8111      625.5401      -147.21261      7.9404537    
  23035000   305.41409     -2087.365       622.36066     -99.43228       15.751246    
  23040000   296.9327      -2095.0791      576.49676     -190.93238     -4.1349358    
  23045000   302.45044     -2099.6565      605.0045      -142.33098      9.2214494    
  23050000   301.93152     -2103.4963      618.36099     -135.13455     -2.0080572    
  23055000   299.75842     -2102.1819      622.49374     -139.40377      4.930667     
  23060000   311.2672      -2100.0114      599.81615     -108.45264      14.809702    
  23065000   298.5893      -2104.8623      619.48391     -150.3214       2.828568     
  23070000   301.09477     -2096.3174      592.05978     -157.99813      7.6607811    
  23075000   281.28707     -2117.1696      600.44227     -259.03232     -3.3140747    
  23080000   310.38014     -2106.112       613.61544     -104.7202       11.728252    
  23085000   300.3919      -2089.4917      631.38641     -114.98849     -4.3654816    
  23090000   304.97275     -2119.5004      622.40989     -133.49174     -2.2014525    
  23095000   300.16499     -2105.4697      598.2816      -165.08588      10.550129    
  23100000   295.11312     -2114.0063      616.29427     -178.19776     -1.1682071    
  23105000   301.92502     -2110.6617      595.924       -164.766        1.9493596    
  23110000   287.51296     -2100.5347      613.72684     -201.27563      11.662838    
  23115000   288.77009     -2114.5129      604.83678     -218.52289     -17.430199    
  23120000   301.21407     -2133.1116      602.5817      -183.73699      8.1677664    
  23125000   302.18013     -2148.3626      578.58522     -218.66498      22.961055    
  23130000   303.20005     -2150.0978      611.585       -182.84019     -5.4969954    
  23135000   288.82935     -2161.4071      592.06521     -277.92372     -11.525743    
  23140000   294.6477      -2145.671       625.83361     -202.40419      1.2067559    
  23145000   305.40807     -2163.2757      579.81181     -217.91872     -6.5613443    
  23150000   301.71011     -2149.4936      609.15197     -191.33083      1.4540884    
  23155000   311.30432     -2122.456       605.00789     -125.53959     -21.053513    
  23160000   311.67441     -2134.8971      633.04535     -108.28839      0.053377614  
  23165000   303.10659     -2129.6098      613.09835     -161.25671      6.8901535    
  23170000   293.86436     -2122.4982      625.73603     -182.83142     -4.5183076    
  23175000   294.69234     -2121.2675      593.73453     -209.90012     -20.246316    
  23180000   290.06382     -2127.2935      625.89583     -204.4599       14.897109    
  23185000   309.71761     -2117.058       629.04658     -103.19738     -0.82833572   
  23190000   304.86959     -2129.4958      631.23627     -135.12208      15.703231    
  23195000   298.29346     -2137.5469      614.3439      -189.46877      6.0844248    
  23200000   297.67474     -2131.7205      606.22232     -194.53045      3.7099381    
  23205000   298.50286     -2133.6443      601.09887     -197.87496     -9.0503006    
  23210000   293.02779     -2124.9141      618.3326      -196.39128      8.6279328    
  23215000   299.27213     -2114.4195      613.97699     -162.33244      2.695801     
  23220000   294.593       -2130.1598      639.83425     -173.13685      0.34037392   
  23225000   295.58784     -2115.2301      589.3701      -204.22317      9.2073521    
  23230000   297.71117     -2123.5559      592.74254     -199.68267      21.710965    
  23235000   307.65456     -2126.841       610.31313     -140.9382       16.516219    
  23240000   286.30005     -2105.7021      594.79046     -230.80252      7.7756953    
  23245000   292.42721     -2127.7978      613.03445     -207.25845      0.17079626   
  23250000   306.60606     -2109.6297      645.20911     -93.518981     -12.810768    
  23255000   296.0439      -2130.3417      632.4037      -174.26203     -6.3651394    
  23260000   306.49935     -2078.059       610.45932     -97.175194      37.295352    
  23265000   297.66727     -2089.042       621.97102     -136.13662     -14.389895    
  23270000   293.45353     -2070.4912      611.65467     -146.74269     -4.5052675    
  23275000   287.23836     -2074.942       622.3623      -168.27522      6.3635213    
  23280000   303.38439     -2081.0282      610.36235     -114.16901     -4.0306321    
  23285000   305.87272     -2068.6782      616.37259     -84.682909     -6.6113299    
  23290000   303.09248     -2076.8958      617.21681     -104.48737      6.5346237    
  23295000   296.39159     -2103.3293      639.59765     -138.50105     -1.2724805    
  23300000   292.64753     -2061.2526      582.67569     -170.08685     -3.0906128    
  23305000   306.4256      -2061.6814      626.08845     -65.498174      4.1304474    
  23310000   297.38967     -2067.0401      618.62293     -118.72402     -21.43389     
  23315000   304.02721     -2065.7261      618.75091     -87.604117     -5.9849254    
  23320000   306.66276     -2031.5594      586.02187     -74.382337      3.5245231    
  23325000   295.64876     -2068.3156      622.91029     -123.49614      2.4482504    
  23330000   301.3476      -2053.21        613.37052     -92.449509      0.9178566    
  23335000   299.11383     -2051.3609      587.79838     -126.16025      14.060187    
  23340000   299.79325     -2043.0743      636.49804     -66.136113      1.2276583    
  23345000   296.6549      -2018.2085      625.78515     -66.015511      1.8150486    
  23350000   302.90504     -2010.2373      597.87709     -58.006655     -13.330099    
  23355000   299.51911     -2022.4304      612.43393     -70.782111     -1.4298663    
  23360000   307.33445     -1993.2549      633.98371      14.887276      5.4668691    
  23365000   306.92986     -2014.7036      587.83343     -54.520738     -7.6959353    
  23370000   300.70801     -2036.1708      606.21136     -85.429255     -15.549114    
  23375000   302.67422     -2041.2082      638.79068     -49.095951     -12.828716    
  23380000   306.3475      -2015.1461      608.51603     -36.884516      17.728075    
  23385000   315.73633     -2017.9651      616.20003      9.9599642     -2.2101377    
  23390000   304.61173     -2020.0305      586.35519     -71.690732     -13.192463    
  23395000   298.46957     -2034.1716      629.28821     -70.361713     -9.1879722    
  23400000   305.32006     -2019.149       630.1485      -23.84883       2.0619348    
  23405000   292.71564     -2008.7591      613.2152      -86.749334     -22.578727    
  23410000   304.73394     -2029.3998      611.2182      -55.650572     -5.2498687    
  23415000   294.67278     -2028.832       652.11925     -59.167409      9.6978554    
  23420000   305.46868     -2010.6648      613.7521      -31.096534      0.052685123  
  23425000   296.17834     -2005.0983      616.07908     -64.742178     -4.7173643    
  23430000   311.6173      -2010.6956      580.74742     -36.640215     -9.9797842    
  23435000   297.21467     -2019.7753      593.04928     -97.815307     -3.6727859    
  23440000   300.85214     -2012.0583      623.21956     -43.664077      1.0527525    
  23445000   291.50455     -2017.6298      605.49226     -108.75799     -7.0228604    
  23450000   307.39871     -2008.1407      628.5025      -5.1924002      16.674619    
  23455000   306.12548     -2017.9559      627.28248     -21.920555     -12.876212    
  23460000   292.01467     -2032.5141      588.61635     -138.23735      11.922971    
  23465000   305.6453      -2017.0199      607.59696     -42.817092      13.801173    
  23470000   300.53174     -2027.0882      589.89136     -93.454778      2.0545542    
  23475000   295.31339     -2028.4194      613.21338     -94.796316     -5.6339527    
  23480000   302.74904     -2027.5984      635.3877      -38.55458      -5.5788205    
  23485000   304.59907     -2032.7408      609.60727     -61.205601     -34.670225    
  23490000   303.07433     -2062.6378      639.7923      -67.734934     -21.565362    
  23495000   307.02758     -2048.1778      600.76029     -74.631175      2.4346498    
  23500000   300.60243     -2057.6192      637.65709     -75.904013     -15.877406    
  23505000   294.53778     -2078.6074      592.30794     -169.35773     -20.228237    
  23510000   301.48121     -2075.0904      609.68933     -117.41371      1.8069439    
  23515000   290.33797     -2060.8656      621.80653     -140.89558     -8.833352     
  23520000   290.77119     -2079.1489      586.13138     -192.91699      11.919143    
  23525000   301.88635     -2072.5862      631.8812      -90.906209     -5.1454501    
  23530000   299.10695     -2076.8254      597.20183     -142.252        12.022888    
  23535000   303.34069     -2057.5913      596.64023     -104.64956      6.4032681    
  23540000   301.34844     -2075.8393      603.21805     -125.22753     -19.153306    
  23545000   302.25266     -2101.3634      601.22179     -148.70494      2.0142405    
  23550000   287.19785     -2095.9438      593.29172     -218.52873     -7.0638379    
  23555000   307.48395     -2085.1701      641.37554     -68.96769       23.38904     
  23560000   291.60314     -2084.8605      570.72294     -210.31718      14.3299      
  23565000   307.04424     -2084.3111      636.84637     -74.603925      4.8178899    
  23570000   298.83336     -2099.1274      620.33327     -142.64585     -4.5640644    
  23575000   301.00572     -2097.4283      608.98661     -142.58034      5.6094238    
  23580000   292.62408     -2100.9036      584.72175     -207.79662     -12.763011    
  23585000   300.65578     -2095.8413      609.94658     -141.59803     -15.461657    
  23590000   311.16815     -2103.365       607.18173     -104.88357     -3.3187729    
  23595000   313.34138     -2114.7033      611.70145     -101.98512      9.9426586    
  23600000   299.95889     -2133.8397      588.56303     -204.0959       11.023199    
  23605000   303.50895     -2120.1019      607.95409     -155.09405     -3.1338733    
  23610000   303.36226     -2149.7266      631.58668     -161.74207     -11.158375    
  23615000   299.13756     -2151.3549      625.13499     -188.71157      10.129696    
  23620000   301.541       -2138.2691      627.45435     -162.56007     -0.78836588   
  23625000   295.5472      -2147.3228      607.87631     -217.99142     -21.044173    
  23630000   303.1938      -2126.4686      642.50937     -128.31458      5.2563265    
  23635000   301.69074     -2148.267       636.95633     -162.38654     -0.070764107  
  23640000   302.54173     -2158.8409      629.05151     -177.06028      0.54284851   
  23645000   290.83005     -2163.5899      630.30112     -232.92505      9.8121684    
  23650000   300.40537     -2169.5186      624.10766     -202.23394     -23.090267    
  23655000   297.28154     -2180.5048      608.24045     -243.05467      6.098464     
  23660000   294.72402     -2174.1501      595.59845     -260.77712      4.8778518    
  23665000   292.21146     -2153.5815      608.72966     -238.31152     -2.9856567    
  23670000   297.41648     -2156.0933      640.96949     -185.31082     -21.993792    
  23675000   296.83843     -2156.812       627.77879     -201.80469      4.1279743    
  23680000   294.58295     -2116.5693      638.36722     -161.0583      -22.604645    
  23685000   302.68499     -2155.4721      593.07042     -209.03198      3.9479714    
  23690000   295.66221     -2169.6845      629.57323     -218.14189     -19.208134    
  23695000   302.55523     -2147.2583      628.25344     -166.21543     -3.2796419    
  23700000   297.90219     -2149.9779      606.75352     -211.23956      9.4099537    
  23705000   296.68368     -2147.1003      588.23681     -232.3269      -16.77264     
  23710000   294.2133      -2155.5048      586.77273     -253.24114      8.9706849    
  23715000   303.13782     -2144.6799      615.67626     -173.60924     -9.4014861    
  23720000   310.09397     -2150.9229      614.00763     -150.41844      12.182836    
  23725000   312.37414     -2142.2941      595.27617     -150.32601     -4.5776738    
  23730000   291.54848     -2137.3604      600.69483     -233.0896       3.3897271    
  23735000   302.50328     -2170.9811      602.03545     -216.38838     -1.3709096    
  23740000   302.18897     -2190.1051      604.2247      -234.72855     -11.039492    
  23745000   302.7481      -2155.9243      611.02018     -191.25226      7.2320582    
  23750000   306.87478     -2137.8536      604.40593     -161.34455     -8.918068     
  23755000   292.02414     -2169.0401      604.71335     -258.62402     -29.301146    
  23760000   301.63182     -2168.1366      573.22502     -246.25082     -14.068776    
  23765000   305.44333     -2174.7353      595.17489     -213.85761     -7.2706551    
  23770000   303.12462     -2199.6245      602.96        -241.32917     -8.3714534    
  23775000   301.57332     -2180.0808      599.24356     -232.43808      0.2456039    
  23780000   302.22199     -2189.0263      625.20793     -212.51885     -18.785834    
  23785000   304.84897     -2199.8948      588.23996     -248.60951      7.9514711    
  23790000   292.95363     -2197.725       619.87008     -267.99623      3.7419668    
  23795000   298.99274     -2223.948       612.14494     -274.9422      -3.9916696    
  23800000   302.5123      -2190.5469      615.58576     -222.3636      -11.789606    
  23805000   287.45743     -2174.0669      623.9161      -264.86685     -4.2155792    
  23810000   312.46128     -2181.971       611.51207     -173.37734     -11.292922    
  23815000   304.82398     -2210.3169      612.82006     -234.56327     -10.633543    
  23820000   298.63438     -2212.8417      582.69343     -294.88973     -17.608311    
  23825000   301.93658     -2191.6764      622.88077     -218.77227      13.79036     
  23830000   289.32557     -2226.3525      611.38543     -321.33029     -7.5722053    
  23835000   302.16562     -2225.3222      606.72392     -267.55079      0.53402352   
  23840000   295.68478     -2228.6565      587.73742     -318.84886     -7.152311     
  23845000   307.7073      -2223.808       623.91133     -224.07112      19.305144    
  23850000   314.85282     -2242.9492      614.95129     -220.22326     -16.209115    
  23855000   295.14493     -2246.1493      602.16153     -324.33133      1.5359486    
  23860000   303.34542     -2216.773       621.58112     -238.86927      11.124395    
  23865000   298.03828     -2213.3075      597.73171     -282.9825       19.762583    
  23870000   283.33228     -2246.2671      618.25971     -361.1678      -7.4730175    
  23875000   303.80513     -2227.0447      614.37143     -254.29518     -4.8623829    
  23880000   291.02391     -2233.8797      630.73388     -301.91535      2.2048838    
  23885000   298.51949     -2215.5941      596.6657      -284.18353     -26.560756    
  23890000   301.42493     -2225.5096      600.46926     -277.3046       18.774927    
  23895000   297.47224     -2226.9386      645.35462     -251.52159      2.696417     
  23900000   301.8469      -2207.6072      613.20112     -244.78372     -9.8895932    
  23905000   299.7134      -2213.4458      586.23182     -287.13084      9.3687191    
  23910000   284.98209     -2213.1375      639.1982      -299.72309      3.0119695    
  23915000   287.43591     -2197.3908      577.41977     -334.78321     -0.94338946   
  23920000   301.50067     -2206.7416      607.82386     -250.84342     -10.894307    
  23925000   293.72346     -2209.7416      592.24831     -304.19253      12.133388    
  23930000   294.28686     -2193.5589      581.15774     -296.58137      9.4620597    
  23935000   288.95964     -2201.4735      613.13762     -296.33515      15.773149    
  23940000   299.9058      -2203.2041      610.4418      -251.81898     -6.3818793    
  23945000   300.81048     -2198.5065      603.41742     -250.10068      33.137135    
  23950000   301.35811     -2209.2406      590.30692     -271.49676     -0.0074968218 
  23955000   309.58278     -2194.7312      640.10576     -170.41429     -11.724763    
  23960000   294.59643     -2187.738       611.19733     -259.33663     -18.963889    
  23965000   297.87509     -2205.5549      626.10545     -247.58582      26.659267    
  23970000   293.56714     -2171.4049      594.93809     -263.86496      7.7669093    
  23975000   306.36873     -2166.3655      625.47777     -171.04724      8.928158     
  23980000   296.49778     -2178.3002      638.67271     -213.92211     -7.1200317    
  23985000   297.05184     -2154.9797      618.72315     -208.07393     -27.997441    
  23990000   307.79981     -2153.98        603.61752     -174.1233       6.0317687    
  23995000   304.87719     -2148.3157      590.45569     -194.68854      6.7422812    
  24000000   290.80204     -2144.1097      617.84597     -226.02526     -0.79934553   
  24005000   307.65044     -2163.8186      595.62592     -192.62142     -9.9664141    
  24010000   297.30029     -2174.0739      608.9663      -235.81409     -4.1444921    
  24015000   301.97072     -2160.604       611.9655      -198.46243      3.8497762    
  24020000   314.84851     -2146.159       616.21975     -122.18382      18.259456    
  24025000   299.66196     -2159.7642      604.0922      -215.81896      4.5057393    
  24030000   309.05636     -2154.5892      624.73225     -147.99954      4.6677533    
  24035000   285.87876     -2181.5609      608.30222     -295.0333       7.3347396    
  24040000   304.65903     -2179.6809      581.6601      -235.82474      4.7536947    
  24045000   297.16655     -2169.3176      606.90348     -233.71858     -10.676123    
  24050000   306.3743      -2169.7932      613.1307      -186.7971      -6.6484963    
  24055000   287.90799     -2157.6363      621.5872      -248.75054      31.707542    
  24060000   308.91855     -2140.8018      610.26567     -149.29483     -16.516528    
  24065000   301.61609     -2161.8493      619.01428     -194.24466      18.320909    
  24070000   293.64367     -2162.3763      629.27729     -220.15501      11.687374    
  24075000   304.09048     -2145.6409      594.88042     -191.10656     -14.202464    
  24080000   303.71382     -2162.2325      590.3189      -213.94377     -7.7411138    
  24085000   298.47709     -2156.4908      617.30555     -204.62999     -10.47182     
  24090000   308.60486     -2133.9223      645.81926     -108.26431      11.525465    
  24095000   311.815       -2152.1247      601.64322     -156.28957      1.1874587    
  24100000   302.20833     -2160.5479      606.494       -202.81542      28.755451    
  24105000   285.14041     -2135.4995      586.95882     -273.61661      4.675194     
  24110000   311.13321     -2140.7304      604.41042     -145.17642      5.5281575    
  24115000   293.3347      -2187.6085      599.79492     -276.251        11.944667    
  24120000   306.97691     -2164.5135      601.09442     -190.85925     -3.1516727    
  24125000   289.92998     -2171.2912      608.87546     -266.0764       1.3641883    
  24130000   300.2591      -2136.5153      581.71484     -212.27747     -11.644705    
  24135000   300.9387      -2148.1961      563.89938     -238.73503      3.7066246    
  24140000   302.26051     -2154.5181      626.1697      -176.87659      28.733229    
  24145000   303.19078     -2166.8779      587.77972     -223.46699      3.1946976    
  24150000   296.38191     -2148.4189      614.15892     -209.07273     -21.402483    
  24155000   310.90667     -2132.4578      635.34596     -106.98124     -24.382253    
  24160000   299.23766     -2162.9826      619.33219     -205.69451      24.073236    
  24165000   290.29678     -2173.516       632.23025     -243.30642      6.1346293    
  24170000   302.55456     -2166.6903      642.33397     -171.56985     -13.750645    
  24175000   295.80533     -2154.7085      595.2745      -236.82477     -1.6374273    
  24180000   294.97925     -2164.4784      591.12307     -254.43971      11.705272    
  24185000   299.94019     -2163.0131      583.58325     -238.33277      4.6940653    
  24190000   296.75959     -2123.2693      593.2248      -203.16857      10.359216    
  24195000   292.64869     -2165.1713      609.49753     -247.17859      3.0982235    
  24200000   304.53999     -2161.1676      625.16817     -174.33561     -1.7286455    
  24205000   292.89756     -2153.0638      596.89191     -246.56392      14.931933    
  24210000   296.78743     -2152.5009      631.53615     -193.96436     -0.055030093  
  24215000   297.65529     -2151.2276      591.30863     -229.03817      14.74545     
  24220000   296.80415     -2105.1173      609.64689     -168.3952       2.2175348    
  24225000   299.66061     -2102.2752      587.8111      -174.6171       5.3386521    
  24230000   299.18914     -2119.5775      621.21926     -160.61929     -14.260496    
  24235000   304.86489     -2118.0748      642.12102     -112.83727      16.862736    
  24240000   304.1763      -2112.0312      614.24438     -137.74912      0.071721242  
  24245000   289.48283     -2132.7188      585.04826     -253.33057      15.774102    
  24250000   303.69714     -2125.8531      604.42146     -163.53646     -3.3632229    
  24255000   297.24039     -2110.6775      639.37398     -142.27784      3.2439361    
  24260000   304.48017     -2116.6831      628.95285     -126.33396      9.9309472    
  24265000   289.39931     -2103.1973      583.85619     -225.37457     -23.430176    
  24270000   292.29655     -2103.1002      598.34536     -197.83406      1.7063876    
  24275000   297.51842     -2116.9823      621.24503     -165.46837     -22.950214    
  24280000   290.15982     -2114.7603      616.91272     -200.48056      1.5187421    
  24285000   302.99329     -2110.8161      607.91584     -148.15212     -7.2475833    
  24290000   285.15473     -2130.388       597.42856     -257.97131      12.708454    
  24295000   294.48478     -2125.5375      593.09247     -215.74021     -6.4160977    
  24300000   306.94713     -2126.3998      606.18501     -147.78813     -22.528712    
  24305000   290.93521     -2124.4618      603.1283      -220.49954      4.055323     
  24310000   288.4914      -2130.0311      607.80509     -232.31887     -0.35156921   
  24315000   306.96993     -2137.8602      627.56886     -137.76275      27.981702    
  24320000   302.54775     -2142.496       598.80693     -190.93305      5.2959319    
  24325000   301.52894     -2112.4957      624.96881     -139.3262      -0.25152034   
  24330000   299.47914     -2123.7097      628.12926     -156.54481      26.129035    
  24335000   304.47759     -2120.2247      643.46079     -115.37916      9.3353556    
  24340000   297.61173     -2107.6426      617.15345     -159.80314      22.191218    
  24345000   298.75594     -2118.5559      636.00385     -146.74997      14.492644    
  24350000   300.20076     -2108.0007      609.78807     -155.95046     -11.912253    
  24355000   298.84496     -2125.7644      627.9617      -161.60259      6.4064521    
  24360000   294.39813     -2116.1824      628.04713     -171.81788      30.17156     
  24365000   289.67157     -2113.3969      633.92981     -184.28317      0.76326629   
  24370000   304.1578      -2132.1676      603.008       -169.20461     -8.3460018    
  24375000   289.32381     -2135.0309      608.97409     -232.42783     -4.7430606    
  24380000   297.50104     -2107.9556      630.65922     -147.1052      -15.964956    
  24385000   291.29926     -2124.6318      630.84429     -191.32585     -10.939371    
  24390000   293.40918     -2141.6818      626.70595     -203.08029     -9.7082012    
  24395000   318.81666     -2158.8478      585.0075      -148.34244      18.807513    
  24400000   307.99825     -2143.1675      624.52675     -141.51433     -14.252527    
  24405000   301.79537     -2169.5139      602.96035     -217.16155     -5.3615304    
  24410000   298.14803     -2174.6922      652.1061      -189.50212      14.751224    
  24415000   302.83557     -2144.5001      615.09976     -175.35735     -22.79956     
  24420000   300.7788      -2144.7687      626.79618     -173.12585      1.4375037    
  24425000   302.47825     -2155.4237      564.50748     -238.47087     -9.6381208    
  24430000   304.64247     -2132.5189      562.30157     -208.09532      9.8956163    
  24435000   293.40246     -2182.3277      544.38809     -326.0741       17.197444    
  24440000   308.56541     -2160.4951      600.40926     -180.42351      1.958441     
  24445000   292.14303     -2133.9101      602.17774     -225.49801     -16.004781    
  24450000   307.32858     -2119.9698      644.06814     -101.76951      5.359761     
  24455000   309.62297     -2135.3395      604.33736     -146.61124      3.2519158    
  24460000   307.17969     -2135.9385      618.20704     -144.26502      17.110448    
  24465000   302.6265      -2119.7783      596.21857     -170.45155     -7.4346729    
  24470000   300.45317     -2141.2918      578.18707     -219.71394      2.9562174    
  24475000   299.3527      -2115.7969      624.98791     -152.33872     -19.771761    
  24480000   291.0978      -2135.6528      603.01401     -231.07791     -25.321305    
  24485000   298.35167     -2129.2045      599.37565     -195.83432     -18.133439    
  24490000   290.77372     -2166.0724      625.45396     -240.50657      1.6623522    
  24495000   301.54739     -2161.6193      602.53575     -210.80035     -9.3191918    
  24500000   297.18312     -2142.4119      634.55962     -179.08266      6.9956629    
  24505000   304.5275      -2154.874       613.2236      -180.04249     -4.4057608    
  24510000   298.88545     -2197.2529      606.23598     -254.63577     -10.929773    
  24515000   296.00497     -2182.8398      655.69095     -203.64702      12.761182    
  24520000   303.44117     -2153.4621      625.19814     -171.51321     -9.6406018    
  24525000   305.7891      -2143.5628      581.01451     -195.29941      18.510083    
  24530000   302.58142     -2129.5682      560.13925     -216.52237      2.263821     
  24535000   311.46519     -2161.2396      614.99872     -153.61301     -1.3176246    
  24540000   308.60866     -2158.7942      630.33962     -148.59886      1.8656937    
  24545000   298.06183     -2158.9198      598.47505     -227.74618     -2.4961773    
  24550000   309.10763     -2160.5443      585.50702     -192.95062     -18.963315    
  24555000   295.9115      -2126.903       644.60497     -159.21405     -16.982517    
  24560000   298.45876     -2169.4001      597.59432     -237.33245     -3.3589673    
  24565000   296.14863     -2138.3405      633.98492     -180.21133     -20.46932     
  24570000   297.38215     -2147.4405      621.7145      -196.06648      24.276754    
  24575000   297.37818     -2141.9928      580.59738     -231.7536      -1.4013795    
  24580000   304.6517      -2142.9611      632.79368     -148.00418     -13.868186    
  24585000   293.3599      -2161.756       594.48996     -255.59084      2.569523     
  24590000   294.10507     -2135.4448      612.21865     -208.21916     -8.5207172    
  24595000   303.24922     -2161.8433      605.01185     -200.939       -7.2136328    
  24600000   303.52371     -2118.5558      595.54049     -165.89552      23.438429    
  24605000   299.12807     -2135.0649      609.38687     -188.2121       14.599897    
  24610000   307.04214     -2153.0846      604.39544     -175.83773      7.2808217    
  24615000   296.65926     -2132.9037      602.28333     -204.19302      3.3155381    
  24620000   297.86898     -2139.4436      602.76752     -204.83973     -20.32633     
  24625000   304.97833     -2123.7835      615.19937     -144.96043     -1.774513     
  24630000   303.82688     -2138.2241      628.8071      -150.94172     -19.709887    
  24635000   293.46473     -2136.4447      585.34085     -238.95996      7.1182706    
  24640000   295.26381     -2118.9953      620.72736     -178.07998      21.243949    
  24645000   303.11896     -2114.3563      601.51256     -157.53363     -3.6207669    
  24650000   307.94608     -2100.1277      624.11635     -99.1182       -12.185298    
  24655000   292.54111     -2112.0771      630.18624     -173.87665     -5.9027507    
  24660000   308.45689     -2109.3179      629.92783     -100.21302      0.36761398   
  24665000   297.99779     -2101.1515      596.76958     -171.96967      22.643611    
  24670000   307.19985     -2124.7868      562.59662     -188.63355      13.619483    
  24675000   300.07519     -2138.1966      581.09792     -215.39796     -3.86682      
  24680000   299.63392     -2131.4112      615.35471     -176.32882     -14.457293    
  24685000   295.69257     -2144.847       606.45649     -216.28542      17.416479    
  24690000   303.09146     -2124.6397      633.69183     -135.76074     -12.140066    
  24695000   309.47269     -2157.9577      596.67981     -177.55898      10.88169     
  24700000   317.64362     -2135.6732      595.89663     -119.52365     -6.8125605    
  24705000   302.3183      -2155.0408      591.58839     -211.72229      15.216128    
  24710000   303.97642     -2119.1497      607.28721     -152.71857      8.9794461    
  24715000   300.59713     -2150.0652      623.77092     -182.25983      6.4335666    
  24720000   291.8844      -2134.6563      594.69065     -234.88769     -15.046636    
  24725000   295.04049     -2141.3512      645.83986     -176.32184      1.1086348    
  24730000   304.223       -2132.475       628.89598     -143.33249      11.607923    
  24735000   309.62349     -2114.0564      585.69802     -143.96512     -13.01205     
  24740000   303.63676     -2132.0089      626.87622     -147.50749      1.8567533    
  24745000   294.28871     -2097.9241      628.82038     -153.27562     -16.953845    
  24750000   300.69588     -2119.8977      606.48458     -168.93714      25.675328    
  24755000   303.56626     -2124.4828      642.32023     -124.85251      20.687724    
  24760000   301.49596     -2133.2113      614.6024      -170.5556      -6.6920768    
  24765000   293.61255     -2124.3096      571.95559     -239.54918     -3.647509     
  24770000   301.4665      -2114.1074      622.44652     -143.73927     -3.9743288    
  24775000   301.05194     -2108.4648      609.16931     -153.2275      -2.807623     
  24780000   294.6185      -2093.8582      638.26046     -138.2951      -10.672028    
  24785000   294.50331     -2095.5756      614.15653     -164.63146     -16.49987     
  24790000   306.35166     -2124.128       616.93317     -137.43069     -13.760346    
  24795000   301.221       -2102.0873      619.0159      -136.2475      -15.208627    
  24800000   296.97938     -2108.9754      610.92526     -170.19149      21.115579    
  24805000   301.18774     -2110.1583      607.61901     -155.8641       0.95717525   
  24810000   303.65218     -2149.8841      615.01363     -177.17627     -13.659919    
  24815000   298.41124     -2110.5139      593.08304     -183.17002     -14.379035    
  24820000   297.94725     -2119.173       587.98461     -199.00215     -8.2910647    
  24825000   306.35736     -2136.6274      606.92795     -159.90982     -19.103181    
  24830000   300.4377      -2114.9788      633.82563     -137.83157      25.224791    
  24835000   299.8875      -2139.5624      611.88899     -186.8119      -7.1554616    
  24840000   289.91247     -2147.3388      620.01036     -231.06738     -13.475765    
  24845000   308.443       -2160.0747      604.12488     -176.83479     -8.1580238    
  24850000   300.46827     -2143.4393      614.621       -185.36006      1.2472689    
  24855000   310.68735     -2123.0122      625.72578     -108.13643      3.4002167    
  24860000   304.08152     -2118.9564      621.59566     -137.74685      14.237115    
  24865000   308.07731     -2118.1354      618.91948     -121.73594     -10.780213    
  24870000   303.00319     -2150.8562      618.61555     -177.44822      7.5521924    
  24875000   301.50087     -2114.0131      585.13215     -180.80571     -11.250256    
  24880000   306.39081     -2119.9897      623.17163     -126.87888     -2.8653201    
  24885000   298.35831     -2109.636       632.00691     -143.60488      29.882886    
  24890000   295.73267     -2092.3633      604.53505     -165.54387     -9.2062989    
  24895000   298.75322     -2065.1952      618.60264     -110.80271      12.196768    
  24900000   296.21281     -2079.295       586.6519      -168.21194     -6.6005867    
  24905000   299.4181      -2085.5585      617.0512      -129.74461     -9.90294      
  24910000   295.49495     -2080.6511      595.5719      -163.85767      13.553844    
  24915000   307.50078     -2054.0323      632.6941      -46.436083      4.6100618    
  24920000   300.68174     -2063.3797      626.80412     -92.162866      6.4347272    
  24925000   295.53523     -2057.8605      628.78013     -107.67879     -5.3603955    
  24930000   294.5371      -2071.7441      604.582       -150.22342     -7.8384354    
  24935000   295.40791     -2096.362       581.81476     -193.71495      13.352148    
  24940000   302.89185     -2091.2013      602.25911     -134.6476       9.344436     
  24945000   300.91994     -2082.3165      612.59544     -124.24333      5.244648     
  24950000   300.99364     -2103.589       628.78292     -128.99873     -11.30835     
  24955000   292.27975     -2075.0978      598.28153     -169.97066     -5.9854041    
  24960000   292.58684     -2098.6764      598.09395     -192.36375     -19.720651    
  24965000   307.78069     -2051.859       652.79736     -22.907981      14.24728     
  24970000   299.73065     -2084.679       588.47252     -156.04628     -5.4037018    
  24975000   297.88491     -2080.1663      589.17441     -159.08436      7.0585712    
  24980000   300.20803     -2109.3196      608.77211     -158.2528      -15.987394    
  24985000   299.35328     -2092.7333      612.22697     -142.03347     -7.5833743    
  24990000   294.26592     -2115.0348      637.7026      -161.60593     -21.314188    
  24995000   314.55499     -2127.3413      636.92443     -83.973836      21.420822    
  25000000   310.78721     -2107.0056      600.67951     -116.72964      2.1229549    
  25005000   302.31463     -2100.5069      624.4583      -124.3349       14.272093    
  25010000   304.20929     -2101.1846      651.48737     -89.512036      25.050165    
Loop time of 14119.9 on 18 procs for 25000000 steps with 1501 atoms

Performance: 4589.262 ns/day, 0.005 hours/ns, 1770.549 timesteps/s
99.6% CPU use with 18 MPI tasks x 1 OpenMP threads

MPI task timing breakdown:
Section |  min time  |  avg time  |  max time  |%varavg| %total
---------------------------------------------------------------
Pair    | 41.678     | 960.31     | 4866.8     |4530.5 |  6.80
Bond    | 39.919     | 139.61     | 502.66     |1140.8 |  0.99
Neigh   | 4358.1     | 4389.5     | 4441.6     |  48.5 | 31.09
Comm    | 3686.6     | 8303.7     | 9424.8     |1832.0 | 58.81
Output  | 3.9725     | 4.1492     | 4.2644     |   3.8 |  0.03
Modify  | 49.246     | 155.81     | 545.28     |1170.9 |  1.10
Other   |            | 166.8      |            |       |  1.18

Nlocal:        83.3889 ave         315 max          14 min
Histogram: 8 0 8 0 0 0 0 0 0 2
Nghost:        2455.72 ave        2822 max        1711 min
Histogram: 2 0 0 0 3 5 0 0 0 8
Neighs:        1306.56 ave        6444 max          38 min
Histogram: 8 6 2 0 0 0 0 0 0 2
FullNghs:         2656 ave       13306 max          20 min
Histogram: 8 4 4 0 0 0 0 0 0 2

Total # of neighbors = 47920
Ave neighs/atom = 31.925383
Ave special neighs/atom = 3.5976016
Neighbor list builds = 2500000
Dangerous builds = 2500000
Total wall time: 3:55:21
