LAMMPS (23 Jun 2022)
OMP_NUM_THREADS environment is not set. Defaulting to 1 thread. (src/src/comm.cpp:98)
  using 1 OpenMP thread(s) per MPI task

variable 		movie equal 25000
variable		solvent equal 0.2  #0.2 is a good solvent, 0.5 is a bad solvent, 1.0 is no solvent/vacuum
variable		np_rad equal 25.0  #NP radius in Angstrom (= 0.1 nm)
variable                coor_del equal 4.0  # in order for a ligand to be considered to be bound, it must be within this radius of the edge of the NP VDW
variable 		E_bind equal 8.0  #ligand-NP binding energy in kcal/mol
variable		Lbox equal 150.0   #edge length of cubic simulation box
variable 		Nlig equal 900	   #number of ligands
variable		seed equal 314159
variable		trajsteps equal 25000000	 #number of timesteps (length of simulation)

units 			real
atom_style		molecular

region 			box block 0 ${Lbox} 0 ${Lbox} 0 ${Lbox} units box
region 			box block 0 150 0 ${Lbox} 0 ${Lbox} units box
region 			box block 0 150 0 150 0 ${Lbox} units box
region 			box block 0 150 0 150 0 150 units box
create_box		4 box bond/types 2 angle/types 1 extra/bond/per/atom 2 extra/angle/per/atom 1 extra/special/per/atom 3
Created orthogonal box = (0 0 0) to (150 150 150)
  2 by 3 by 3 MPI processor grid

molecule		lig ligand.mol
Read molecule template lig:
  1 molecules
  0 fragments
  5 atoms with max type 2
  4 bonds with max type 1
  3 angles with max type 1
  0 dihedrals with max type 0
  0 impropers with max type 0
#molecule		hex hexane.mol

mass            1 60 #C1, MARTINI bead representing a 4-carbon segment of an alkyl chain
mass            2 60 #N6d, MARTINI bead representing a NH2 amino group + a 2-carbon segment of an alkyl chain
mass            3 43 #SC2, MARTINI bead representing a 3-carbon segment of an alkyl chain. NOT USED IN THIS SIMULATION!
mass            4 500 #a spherical nanoparticle. the mass is not realistic.

# put NP in center
create_atoms	4 single $(v_Lbox/2) $(v_Lbox/2) $(v_Lbox/2) units box
create_atoms	4 single 75 $(v_Lbox/2) $(v_Lbox/2) units box
create_atoms	4 single 75 75 $(v_Lbox/2) units box
create_atoms	4 single 75 75 75 units box
Created 1 atoms
  using box units in orthogonal box = (0 0 0) to (150 150 150)
  create_atoms CPU = 0.000 seconds

# define region as everything outside a spherical center in sim. box. ASSUME SIM. BOX IS IMPLIED? doc seems to...
region			box_with_hole sphere $(v_Lbox/2) $(v_Lbox/2) $(v_Lbox/2) $(v_np_rad+5.0) side out units box
region			box_with_hole sphere 75 $(v_Lbox/2) $(v_Lbox/2) $(v_np_rad+5.0) side out units box
region			box_with_hole sphere 75 75 $(v_Lbox/2) $(v_np_rad+5.0) side out units box
region			box_with_hole sphere 75 75 75 $(v_np_rad+5.0) side out units box
region			box_with_hole sphere 75 75 75 30 side out units box

create_atoms	0 random ${Nlig} ${seed} box_with_hole mol lig 12345
create_atoms	0 random 900 ${seed} box_with_hole mol lig 12345
create_atoms	0 random 900 314159 box_with_hole mol lig 12345
Created 4500 atoms
  using lattice units in orthogonal box = (0 0 0) to (150 150 150)
  create_atoms CPU = 0.003 seconds

pair_style		lj/expand 12.0
pair_modify		shift yes

#pair_coeff		1 1 energy sigma delta cut

#ligand-ligand interactions
pair_coeff		1 1 $(v_solvent*0.810) 4.7 0 12
pair_coeff		1 1 0.16200000000000003286 4.7 0 12
pair_coeff		2 2 $(v_solvent*0.841) 4.7 0 12
pair_coeff		2 2 0.16820000000000001616 4.7 0 12
pair_coeff		1 2 $(v_solvent*0.667) 4.7 0 12
pair_coeff		1 2 0.13340000000000001856 4.7 0 12

#solvent-ligand interactions, NOT USED IN THIS SIMULATION
pair_coeff		3 3 0.562 4.1 0 12
pair_coeff		1 3 0.755 4.3 0 12
pair_coeff		2 3 0.554 4.3 0 12

#interactions involving the NP
pair_coeff  	1 4 0.100 4.0 $(v_np_rad-2.5) 12
pair_coeff  	1 4 0.100 4.0 22.5 12
pair_coeff  	3 4 0.100 4.0 $(v_np_rad-2.5) 12
pair_coeff  	3 4 0.100 4.0 22.5 12
pair_coeff		4 4 0.100 4.0 $(2*v_np_rad-4.0) 12
pair_coeff		4 4 0.100 4.0 46 12
pair_coeff   	2 4 ${E_bind} 4.0 $(v_np_rad-2.5) 12 #this interaction controls the binding strength of ligands to the NP core
pair_coeff   	2 4 8 4.0 $(v_np_rad-2.5) 12 
pair_coeff   	2 4 8 4.0 22.5 12 

bond_style  	harmonic
bond_coeff  	1 4.54 4.7 	#C1-C1
bond_coeff		2 5.98 4.05 #SC2-SC2, hexane

angle_style		cosine/squared
angle_coeff		1 4.1826 180

special_bonds 	lj 0 1 1
Finding 1-2 1-3 1-4 neighbors ...
  special bond factors lj:    0        1        1       
  special bond factors coul:  0        0        0       
     2 = max # of 1-2 neighbors
     2 = max # of 1-3 neighbors
     2 = max # of 1-4 neighbors
     7 = max # of special neighbors
  special bonds CPU = 0.001 seconds

group			ligands type 1 2
4500 atoms in group ligands


#EQULILIBRATION: getting rid of overlaps between particles using fix nve/limit ***************

fix 			1 ligands nve/limit 0.1
fix 			2 ligands langevin 300 300 1000 12345 #langevin thermostat

timestep		30

thermo 			5000

dump      		1 all custom ${movie} pos.lammpstrj type x y z
dump      		1 all custom 25000 pos.lammpstrj type x y z
dump_modify		1 sort id

run				10000
Generated 0 of 6 mixed pair_coeff terms from geometric mixing rule
Neighbor list info ...
  update every 1 steps, delay 10 steps, check yes
  max neighbors/atom: 2000, page size: 100000
  master list distance cutoff = 60
  ghost atom cutoff = 60
  binsize = 30, bins = 5 5 5
  1 neighbor lists, perpetual/occasional/extra = 1 0 0
  (1) pair lj/expand, perpetual
      attributes: half, newton on
      pair build: half/bin/newton
      stencil: half/bin/3d
      bin: standard
Per MPI rank memory allocation (min/avg/max) = 8.489 | 8.518 | 8.542 Mbytes
   Step          Temp          E_pair         E_mol          TotEng         Press     
         0   0              5.4699566e+14  5.7350071e-25  5.4699566e+14 -3.0145141e+15
      5000   140.96324     -961.24337      992.65918      1922.2467     -0.78687568   
     10000   140.48547     -1134.0003      963.43842      1713.8603      2.333268     
Loop time of 7.64038 on 18 procs for 10000 steps with 4501 atoms

Performance: 3392.502 ns/day, 0.007 hours/ns, 1308.836 timesteps/s
99.6% CPU use with 18 MPI tasks x 1 OpenMP threads

MPI task timing breakdown:
Section |  min time  |  avg time  |  max time  |%varavg| %total
---------------------------------------------------------------
Pair    | 0.31984    | 0.53629    | 0.90604    |  19.0 |  7.02
Bond    | 0.10175    | 0.12812    | 0.16627    |   4.4 |  1.68
Neigh   | 3.7543     | 3.7599     | 3.77       |   0.2 | 49.21
Comm    | 2.4783     | 2.9415     | 3.2177     |  10.1 | 38.50
Output  | 6.5452e-05 | 8.2864e-05 | 0.00011632 |   0.0 |  0.00
Modify  | 0.13877    | 0.17158    | 0.22841    |   5.1 |  2.25
Other   |            | 0.1029     |            |       |  1.35

Nlocal:        250.056 ave         317 max         188 min
Histogram: 2 0 4 3 2 1 1 2 1 2
Nghost:        7236.44 ave        7481 max        6916 min
Histogram: 1 1 1 3 1 1 3 2 3 2
Neighs:        2446.56 ave        4204 max        1352 min
Histogram: 2 2 4 4 1 1 2 0 1 1

Total # of neighbors = 44038
Ave neighs/atom = 9.784048
Ave special neighs/atom = 3.5992002
Neighbor list builds = 909
Dangerous builds = 1

#PRODUCTION RUN ******************************************************************************

unfix 			1
fix 			1 ligands nve
undump			1
# define spherical region in center of sim. box
# region			center sphere $(v_Lbox/2) $(v_Lbox/2) $(v_Lbox/2) $(v_np_rad+5.0) units box
# delete atoms in the region
# delete_atoms	region center mol yes
# put NP in the hole
# create_atoms	4 single $(v_Lbox/2) $(v_Lbox/2) $(v_Lbox/2) units box

dump      		2 all custom ${movie} pos2.lammpstrj type x y z
dump      		2 all custom 25000 pos2.lammpstrj type x y z
dump_modify		2 sort id

group           nps     type 4
1 atoms in group nps
group           amines  type 2
900 atoms in group amines

# count coordination number of NP
compute coords nps coord/atom cutoff $(v_np_rad + v_coor_del) 2
compute coords nps coord/atom cutoff 29 2
dump 3 nps custom ${movie} coords.dmp c_coords
dump 3 nps custom 25000 coords.dmp c_coords
# equivalent calculation below
# compute coords nps coord/atom cutoff 28 group amines
# dump 4 nps custom ${movie} coords2.dmp type c_coords2



run				${trajsteps}
run				25000000
Generated 0 of 6 mixed pair_coeff terms from geometric mixing rule
Neighbor list info ...
  update every 1 steps, delay 10 steps, check yes
  max neighbors/atom: 2000, page size: 100000
  master list distance cutoff = 60
  ghost atom cutoff = 60
  binsize = 30, bins = 5 5 5
  2 neighbor lists, perpetual/occasional/extra = 1 1 0
  (1) pair lj/expand, perpetual
      attributes: half, newton on
      pair build: half/bin/newton
      stencil: half/bin/3d
      bin: standard
  (2) compute coord/atom, occasional
      attributes: full, newton on
      pair build: full/bin
      stencil: full/bin/3d
      bin: standard
Per MPI rank memory allocation (min/avg/max) = 7.848 | 7.877 | 7.898 Mbytes
   Step          Temp          E_pair         E_mol          TotEng         Press     
     10000   140.48547     -1134.0003      963.43842      1713.8603      2.333268     
     15000   303.20623     -1172.0543      1934.9405      4829.9871      7.7547939    
     20000   302.78356     -1345.0641      1940.9268      4657.294       12.335678    
     25000   297.82768     -1498.6261      1920.389       4416.7177     -3.1442793    
     30000   303.4721      -1577.0406      1918.8554      4412.4818      21.444185    
     35000   303.66706     -1643.214       1986.2767      4416.345       14.325139    
     40000   298.14073     -1746.075       1933.3483      4186.4273      15.918117    
     45000   300.93677     -1821.0952      1954.2305      4169.7943     -0.60074736   
     50000   298.52815     -1875.3974      1919.9846      4048.9379     -1.5036138    
     55000   297.61961     -1995.2041      1921.5895      3918.5493      8.8066562    
     60000   302.82206     -2084.4967      1897.1278      3874.5788      9.725157     
     65000   291.30666     -2089.8212      1970.7012      3788.3642      19.643312    
     70000   302.82862     -2144.0532      1928.9496      3846.932       20.307901    
     75000   297.99962     -2159.7299      1975.2361      3812.7673      5.8034685    
     80000   304.83254     -2230.2229      1985.1296      3843.8223      6.0388673    
     85000   305.06886     -2269.3851      1946.8363      3769.5366     -6.1537331    
     90000   301.00332     -2284.746       1909.266       3662.0717      3.0457417    
     95000   305.30391     -2320.568       1966.6172      3741.2876      9.8175406    
    100000   301.59489     -2341.3195      1844.3118      3548.4792      25.701116    
    105000   304.63026     -2389.44        1888.818       3585.5802      9.0528329    
    110000   304.0253      -2391.1075      1940.4575      3627.4376      4.2100978    
    115000   303.41255     -2448.2599      1978.8661      3600.4745      28.402635    
    120000   293.33729     -2494.3759      1916.14        3356.4865      18.865413    
    125000   307.65534     -2489.0869      1961.0544      3598.747      -6.0694049    
    130000   302.5078      -2507.5391      1922.0362      3472.2294      2.9969508    
    135000   303.35104     -2527.8153      1945.0544      3486.2823     -0.59557599   
    140000   305.49921     -2546.6877      1939.7601      3490.9305      4.1767589    
    145000   297.77409     -2567.3424      1909.2087      3336.1024      13.769231    
    150000   302.42175     -2585.6038      1906.4767      3377.451      -4.1942334    
    155000   299.95258     -2599.2296      1870.3433      3294.5711      10.003179    
    160000   303.5286      -2573.966       1902.6424      3400.1014      17.124788    
    165000   299.93839     -2617.7735      1911.0011      3316.4948      13.410345    
    170000   297.45416     -2648.1557      1873.2868      3215.0756      2.5188588    
    175000   295.31417     -2633.5798      1942.8237      3270.4834     -2.8277677    
    180000   300.54542     -2651.4652      1890.128       3270.0724      15.926994    
    185000   306.12758     -2662.7923      1922.6474      3366.1418      28.987654    
    190000   297.1964      -2665.8649      1880.3206      3200.9428     -7.77555      
    195000   291.34315     -2652.1338      1866.2465      3122.0864      8.3028126    
    200000   307.58823     -2676.0181      1897.5556      3347.4169      9.1769461    
    205000   299.82659     -2690.613       1899.2499      3230.4044     -3.3236995    
    210000   297.17401     -2676.7258      1896.0357      3205.4966      25.138343    
    215000   298.30314     -2686.0078      1870.3623      3185.687       30.581538    
    220000   301.07203     -2710.5327      1931.5469      3259.4877      4.5318686    
    225000   301.1617      -2735.059       1906.4265      3211.0438      10.069813    
    230000   307.3455      -2721.9737      1962.7755      3363.4253     -14.1605      
    235000   304.17662     -2740.0312      1965.4628      3305.549       18.535655    
    240000   292.82052     -2728.9833      1937.2234      3136.0307     -2.0757687    
    245000   303.33087     -2722.0272      1935.8549      3282.6004      13.749079    
    250000   296.86312     -2764.1308      1892.5731      3110.4588     -6.5606847    
    255000   304.66615     -2736.0672      1903.5272      3254.1436      9.8775323    
    260000   296.44411     -2716.9023      1913.7631      3173.2569      8.8383331    
    265000   299.43333     -2757.9358      1910.1493      3168.7059      6.1596649    
    270000   302.84624     -2798.175       1876.8642      3140.9612      10.605666    
    275000   300.87986     -2813.1099      1891.7171      3114.5029      23.129068    
    280000   295.5702      -2781.6172      1899.0239      3082.0806      26.817239    
    285000   299.53913     -2836.9576      1922.76        3103.7141      31.398314    
    290000   301.48346     -2798.6332      1937.0247      3182.3836      11.777977    
    295000   302.09205     -2817.5558      1886.4         3120.9998      3.8511913    
    300000   309.00598     -2898.1907      1907.2823      3153.9882      18.165736    
    305000   297.12437     -2879.2739      1925.005       3031.2519      41.126028    
    310000   294.76396     -2912.101       1932.8498      2974.6081      29.614199    
ERROR: Lost atoms: original 4501 current 4496 (src/src/thermo.cpp:481)
Last command: run				${trajsteps}
