LAMMPS (23 Jun 2022)
OMP_NUM_THREADS environment is not set. Defaulting to 1 thread. (src/src/comm.cpp:98)
  using 1 OpenMP thread(s) per MPI task

variable 		movie equal 25000
variable		solvent equal 0.2  #0.2 is a good solvent, 0.5 is a bad solvent, 1.0 is no solvent/vacuum
variable		np_rad equal 25.0  #NP radius in Angstrom (= 0.1 nm)
variable                coor_del equal 4.0  # in order for a ligand to be considered to be bound, it must be within this radius of the edge of the NP VDW
variable 		E_bind equal 8.0  #ligand-NP binding energy in kcal/mol
variable		Lbox equal 150.0   #edge length of cubic simulation box
variable 		Nlig equal 800	   #number of ligands
variable		seed equal 314159
variable		trajsteps equal 25000000	 #number of timesteps (length of simulation)

units 			real
atom_style		molecular

region 			box block 0 ${Lbox} 0 ${Lbox} 0 ${Lbox} units box
region 			box block 0 150 0 ${Lbox} 0 ${Lbox} units box
region 			box block 0 150 0 150 0 ${Lbox} units box
region 			box block 0 150 0 150 0 150 units box
create_box		4 box bond/types 2 angle/types 1 extra/bond/per/atom 2 extra/angle/per/atom 1 extra/special/per/atom 3
Created orthogonal box = (0 0 0) to (150 150 150)
  2 by 3 by 3 MPI processor grid

molecule		lig ligand.mol
Read molecule template lig:
  1 molecules
  0 fragments
  5 atoms with max type 2
  4 bonds with max type 1
  3 angles with max type 1
  0 dihedrals with max type 0
  0 impropers with max type 0
#molecule		hex hexane.mol

mass            1 60 #C1, MARTINI bead representing a 4-carbon segment of an alkyl chain
mass            2 60 #N6d, MARTINI bead representing a NH2 amino group + a 2-carbon segment of an alkyl chain
mass            3 43 #SC2, MARTINI bead representing a 3-carbon segment of an alkyl chain. NOT USED IN THIS SIMULATION!
mass            4 500 #a spherical nanoparticle. the mass is not realistic.

# put NP in center
create_atoms	4 single $(v_Lbox/2) $(v_Lbox/2) $(v_Lbox/2) units box
create_atoms	4 single 75 $(v_Lbox/2) $(v_Lbox/2) units box
create_atoms	4 single 75 75 $(v_Lbox/2) units box
create_atoms	4 single 75 75 75 units box
Created 1 atoms
  using box units in orthogonal box = (0 0 0) to (150 150 150)
  create_atoms CPU = 0.000 seconds

# define region as everything outside a spherical center in sim. box. ASSUME SIM. BOX IS IMPLIED? doc seems to...
region			box_with_hole sphere $(v_Lbox/2) $(v_Lbox/2) $(v_Lbox/2) $(v_np_rad+5.0) side out units box
region			box_with_hole sphere 75 $(v_Lbox/2) $(v_Lbox/2) $(v_np_rad+5.0) side out units box
region			box_with_hole sphere 75 75 $(v_Lbox/2) $(v_np_rad+5.0) side out units box
region			box_with_hole sphere 75 75 75 $(v_np_rad+5.0) side out units box
region			box_with_hole sphere 75 75 75 30 side out units box

create_atoms	0 random ${Nlig} ${seed} box_with_hole mol lig 12345
create_atoms	0 random 800 ${seed} box_with_hole mol lig 12345
create_atoms	0 random 800 314159 box_with_hole mol lig 12345
Created 4000 atoms
  using lattice units in orthogonal box = (0 0 0) to (150 150 150)
  create_atoms CPU = 0.003 seconds

pair_style		lj/expand 12.0
pair_modify		shift yes

#pair_coeff		1 1 energy sigma delta cut

#ligand-ligand interactions
pair_coeff		1 1 $(v_solvent*0.810) 4.7 0 12
pair_coeff		1 1 0.16200000000000003286 4.7 0 12
pair_coeff		2 2 $(v_solvent*0.841) 4.7 0 12
pair_coeff		2 2 0.16820000000000001616 4.7 0 12
pair_coeff		1 2 $(v_solvent*0.667) 4.7 0 12
pair_coeff		1 2 0.13340000000000001856 4.7 0 12

#solvent-ligand interactions, NOT USED IN THIS SIMULATION
pair_coeff		3 3 0.562 4.1 0 12
pair_coeff		1 3 0.755 4.3 0 12
pair_coeff		2 3 0.554 4.3 0 12

#interactions involving the NP
pair_coeff  	1 4 0.100 4.0 $(v_np_rad-2.5) 12
pair_coeff  	1 4 0.100 4.0 22.5 12
pair_coeff  	3 4 0.100 4.0 $(v_np_rad-2.5) 12
pair_coeff  	3 4 0.100 4.0 22.5 12
pair_coeff		4 4 0.100 4.0 $(2*v_np_rad-4.0) 12
pair_coeff		4 4 0.100 4.0 46 12
pair_coeff   	2 4 ${E_bind} 4.0 $(v_np_rad-2.5) 12 #this interaction controls the binding strength of ligands to the NP core
pair_coeff   	2 4 8 4.0 $(v_np_rad-2.5) 12 
pair_coeff   	2 4 8 4.0 22.5 12 

bond_style  	harmonic
bond_coeff  	1 4.54 4.7 	#C1-C1
bond_coeff		2 5.98 4.05 #SC2-SC2, hexane

angle_style		cosine/squared
angle_coeff		1 4.1826 180

special_bonds 	lj 0 1 1
Finding 1-2 1-3 1-4 neighbors ...
  special bond factors lj:    0        1        1       
  special bond factors coul:  0        0        0       
     2 = max # of 1-2 neighbors
     2 = max # of 1-3 neighbors
     2 = max # of 1-4 neighbors
     7 = max # of special neighbors
  special bonds CPU = 0.001 seconds

group			ligands type 1 2
4000 atoms in group ligands


#EQULILIBRATION: getting rid of overlaps between particles using fix nve/limit ***************

fix 			1 ligands nve/limit 0.1
fix 			2 ligands langevin 300 300 1000 12345 #langevin thermostat

timestep		30

thermo 			5000

dump      		1 all custom ${movie} pos.lammpstrj type x y z
dump      		1 all custom 25000 pos.lammpstrj type x y z
dump_modify		1 sort id

run				10000
Generated 0 of 6 mixed pair_coeff terms from geometric mixing rule
Neighbor list info ...
  update every 1 steps, delay 10 steps, check yes
  max neighbors/atom: 2000, page size: 100000
  master list distance cutoff = 60
  ghost atom cutoff = 60
  binsize = 30, bins = 5 5 5
  1 neighbor lists, perpetual/occasional/extra = 1 0 0
  (1) pair lj/expand, perpetual
      attributes: half, newton on
      pair build: half/bin/newton
      stencil: half/bin/3d
      bin: standard
Per MPI rank memory allocation (min/avg/max) = 8.437 | 8.461 | 8.482 Mbytes
   Step          Temp          E_pair         E_mol          TotEng         Press     
         0   0              5.4699386e+14  5.0467037e-25  5.4699386e+14 -3.0145143e+15
      5000   143.0534      -843.59305      856.6834       1718.7504      8.370678     
     10000   141.59027     -942.49394      849.72551      1595.4463     -5.7772047    
Loop time of 6.18769 on 18 procs for 10000 steps with 4001 atoms

Performance: 4188.963 ns/day, 0.006 hours/ns, 1616.112 timesteps/s
99.7% CPU use with 18 MPI tasks x 1 OpenMP threads

MPI task timing breakdown:
Section |  min time  |  avg time  |  max time  |%varavg| %total
---------------------------------------------------------------
Pair    | 0.23396    | 0.43123    | 0.64945    |  18.6 |  6.97
Bond    | 0.080689   | 0.11591    | 0.14198    |   4.8 |  1.87
Neigh   | 2.8814     | 2.889      | 2.8966     |   0.2 | 46.69
Comm    | 2.272      | 2.508      | 2.7686     |   9.7 | 40.53
Output  | 6.0274e-05 | 7.4289e-05 | 9.8267e-05 |   0.0 |  0.00
Modify  | 0.11262    | 0.15249    | 0.18075    |   5.0 |  2.46
Other   |            | 0.09098    |            |       |  1.47

Nlocal:        222.278 ave         277 max         157 min
Histogram: 3 0 1 0 3 3 2 3 0 3
Nghost:        6434.56 ave        6707 max        6224 min
Histogram: 3 1 2 2 3 1 3 0 2 1
Neighs:           1948 ave        3098 max        1079 min
Histogram: 3 0 2 5 2 1 2 0 2 1

Total # of neighbors = 35064
Ave neighs/atom = 8.763809
Ave special neighs/atom = 3.5991002
Neighbor list builds = 909
Dangerous builds = 1

#PRODUCTION RUN ******************************************************************************

unfix 			1
fix 			1 ligands nve
undump			1
# define spherical region in center of sim. box
# region			center sphere $(v_Lbox/2) $(v_Lbox/2) $(v_Lbox/2) $(v_np_rad+5.0) units box
# delete atoms in the region
# delete_atoms	region center mol yes
# put NP in the hole
# create_atoms	4 single $(v_Lbox/2) $(v_Lbox/2) $(v_Lbox/2) units box

dump      		2 all custom ${movie} pos2.lammpstrj type x y z
dump      		2 all custom 25000 pos2.lammpstrj type x y z
dump_modify		2 sort id

group           nps     type 4
1 atoms in group nps
group           amines  type 2
800 atoms in group amines

# count coordination number of NP
compute coords nps coord/atom cutoff $(v_np_rad + v_coor_del) 2
compute coords nps coord/atom cutoff 29 2
dump 3 nps custom ${movie} coords.dmp c_coords
dump 3 nps custom 25000 coords.dmp c_coords
# equivalent calculation below
# compute coords nps coord/atom cutoff 28 group amines
# dump 4 nps custom ${movie} coords2.dmp type c_coords2



run				${trajsteps}
run				25000000
Generated 0 of 6 mixed pair_coeff terms from geometric mixing rule
Neighbor list info ...
  update every 1 steps, delay 10 steps, check yes
  max neighbors/atom: 2000, page size: 100000
  master list distance cutoff = 60
  ghost atom cutoff = 60
  binsize = 30, bins = 5 5 5
  2 neighbor lists, perpetual/occasional/extra = 1 1 0
  (1) pair lj/expand, perpetual
      attributes: half, newton on
      pair build: half/bin/newton
      stencil: half/bin/3d
      bin: standard
  (2) compute coord/atom, occasional
      attributes: full, newton on
      pair build: full/bin
      stencil: full/bin/3d
      bin: standard
Per MPI rank memory allocation (min/avg/max) = 7.798 | 7.822 | 7.841 Mbytes
   Step          Temp          E_pair         E_mol          TotEng         Press     
     10000   141.59027     -942.49394      849.72551      1595.4463     -5.7772047    
     15000   309.79803     -972.39691      1730.083       4451.4824      19.644473    
     20000   299.91847     -1103.0333      1703.2541      4176.2208      6.8529277    
     25000   298.10685     -1223.946       1711.8926      4042.3462      17.974393    
     30000   300.16678     -1356.0417      1658.9338      3881.8527      5.0491103    
     35000   302.1046      -1485.2743      1748.0737      3864.8651      15.245915    
     40000   296.9454      -1605.4621      1733.5206      3668.6099     -3.0856403    
     45000   299.28847     -1708.072       1715.2321      3575.6484      10.89096     
     50000   301.94011     -1829.1897      1695.0749      3465.9896      14.776396    
     55000   300.75834     -1896.5812      1712.9994      3402.4321      16.357473    
     60000   303.02138     -1924.2836      1717.5251      3406.2382      21.709151    
     65000   303.67112     -1968.493       1778.9553      3431.2061      13.675236    
     70000   301.94467     -2063.0963      1771.1841      3308.2465     -5.6068403    
     75000   303.23892     -2096.3711      1714.2023      3233.4217     -4.6197994    
     80000   291.7623      -2140.1767      1733.637       3072.2124      10.323682    
     85000   298.8975      -2166.7111      1781.7492      3178.8647     -0.5307315    
     90000   296.78973     -2175.3645      1694.1872      3057.5179      7.0216466    
     95000   303.66383     -2237.2015      1691.5577      3075.0129      3.5796216    
    100000   298.77986     -2273.0936      1662.1679      2951.4983      8.8420202    
    105000   299.6552      -2329.7023      1709.197       2952.3557      5.0226672    
    110000   303.82205     -2316.324       1727.7267      3033.946       17.319799    
    115000   298.74963     -2360.3705      1698.3768      2900.0699     -6.1251389    
    120000   303.7076      -2327.4866      1721.0842      3014.7763      18.071237    
    125000   297.14516     -2338.6832      1682.4703      2886.7202      16.518731    
    130000   303.05692     -2357.8733      1722.8698      2978.417      -8.1890772    
    135000   304.87635     -2371.2952      1740.452       3004.2708      11.643231    
    140000   302.22762     -2403.1478      1760.5321      2960.9168      16.240132    
    145000   295.268       -2382.2072      1672.8731      2811.2172      8.884299     
    150000   305.66101     -2435.3335      1733.7817      2942.9179     -5.1234694    
    155000   297.01984     -2441.6985      1640.6371      2740.3775      9.7188126    
    160000   305.00997     -2492.6667      1681.3938      2825.4343     -8.6706969    
    165000   302.50424     -2489.6829      1739.4475      2856.5954     -2.0367074    
    170000   298.26367     -2507.5423      1692.1358      2740.8629      2.0666831    
    175000   296.67186     -2526.0838      1737.2096      2748.4157      4.6387526    
    180000   307.71676     -2538.9281      1681.2987      2811.3515      10.360313    
    185000   307.13218     -2565.6655      1690.1991      2786.5444      1.7304388    
    190000   297.89711     -2580.214       1706.1857      2677.8706     -2.7737452    
    195000   299.99169     -2568.9921      1676.7779      2684.6588      1.630121     
    200000   303.46021     -2576.0695      1704.7499      2746.9094      20.147256    
    205000   293.32387     -2575.9103      1712.4264      2633.887       24.86162     
    210000   293.88168     -2609.3956      1683.1742      2577.8005      24.448217    
    215000   298.33332     -2581.9071      1735.1998      2710.3925     -9.0510063    
    220000   293.07546     -2623.7942      1697.1837      2567.7987      26.763134    
    225000   305.97984     -2640.7808      1757.7059      2765.1962      12.054595    
    230000   303.86935     -2673.1967      1722.2032      2672.1137      8.8127951    
    235000   301.08463     -2651.3057      1717.284       2655.8827      9.200624     
    240000   298.48337     -2644.4992      1712.7629      2627.1526      7.2871022    
    245000   298.37949     -2628.7523      1754.0098      2682.9078      3.4242049    
    250000   303.98085     -2634.6422      1715.6953      2705.4898     -9.3133928    
    255000   299.87828     -2643.6521      1746.83        2678.6986      5.4127551    
    260000   300.01725     -2650.8015      1767.7337      2694.11       -8.7433875    
    265000   304.35139     -2685.5045      1715.3251      2658.6753      28.749978    
    270000   296.35441     -2665.2115      1689.4886      2557.7818      0.73636145   
    275000   302.16587     -2631.6246      1700.4967      2671.6683     -1.3669081    
    280000   299.46125     -2597.1605      1690.4429      2663.8308     -11.693878    
    285000   299.23401     -2636.322       1721.0708      2652.5877      15.008095    
    290000   293.79645     -2655.3271      1693.5053      2541.1839      3.5824795    
    295000   297.8176      -2663.7735      1719.585       2606.7622      11.606053    
    300000   300.23191     -2659.9632      1700.0678      2619.8417      6.7054091    
    305000   295.8947      -2672.8827      1709.5337      2564.6746      17.811284    
    310000   289.2206      -2659.909       1679.1295      2467.6671      13.56478     
    315000   297.41733     -2660.1452      1692.851       2578.8841      13.182237    
    320000   302.40546     -2706.3697      1666.164       2565.4472      20.141671    
    325000   303.78152     -2725.7834      1676.3462      2572.6229      21.793438    
    330000   306.01266     -2683.7194      1695.13        2660.073       14.447352    
    335000   298.29066     -2670.0162      1658.3234      2544.8984     -8.3595012    
    340000   303.81056     -2687.1405      1687.1119      2622.3776      17.076682    
    345000   305.74138     -2712.0555      1693.3748      2626.7472      21.480688    
    350000   298.76865     -2719.1         1703.9128      2547.1031      6.6206175    
    355000   297.39089     -2686.6052      1742.987       2602.2448      0.3084506    
    360000   297.9005      -2716.2354      1655.8083      2491.5122     -5.7516212    
    365000   297.49334     -2738.9421      1743.7869      2551.9293     -7.082227     
    370000   298.45318     -2738.9981      1626.3988      2445.9298      10.586172    
    375000   303.6115      -2797.5555      1661.378       2483.8553      5.7329457    
    380000   300.59787     -2832.7418      1637.736       2389.0947      4.2800582    
    385000   296.88935     -2771.6403      1705.9422      2474.1849      18.484766    
    390000   307.56128     -2771.637       1727.0778      2622.5679      17.279591    
    395000   301.01185     -2750.8575      1669.3602      2507.5392     -0.94847468   
    400000   297.69711     -2747.0456      1773.7529      2576.2214     -9.9400518    
    405000   302.35066     -2740.4954      1686.5556      2551.0598     -0.29288852   
    410000   302.82089     -2702.1574      1715.9673      2624.4161      10.25        
    415000   297.62811     -2745.7391      1676.5645      2479.5169     -3.1102702    
    420000   299.43163     -2725.7055      1652.6711      2497.1609      4.9518837    
    425000   296.20224     -2750.0611      1701.0803      2482.7096      6.6446917    
    430000   299.27522     -2744.4855      1700.617       2524.4618      13.730193    
    435000   302.08715     -2749.0938      1691.5913      2544.3552     -22.113509    
    440000   296.23805     -2777.7719      1679.6168      2433.9623      19.33493     
    445000   297.30609     -2779.7389      1705.4879      2470.6008      2.6333672    
    450000   305.38735     -2706.4141      1602.603       2537.3957      12.376103    
    455000   299.14067     -2705.8986      1690.228       2551.0555      28.788531    
    460000   300.07411     -2749.442       1692.3583      2520.772       4.6962334    
    465000   306.15545     -2735.4646      1649.2561      2564.1564      8.4934752    
    470000   301.14754     -2778.0727      1737.916       2550.4978      13.30281     
    475000   301.01052     -2733.1239      1724.2544      2580.1513      12.151137    
    480000   296.21131     -2715.919       1683.1225      2499.002      -13.293197    
    485000   305.05076     -2698.2225      1745.6464      2684.6174     -7.86938      
    490000   294.21155     -2706.4442      1702.7783      2504.2891      4.5512206    
    495000   306.76407     -2725.0933      1714.9921      2647.5205     -8.3582712    
    500000   298.94181     -2721.7014      1695.973       2538.6266     -3.4679229    
    505000   298.72625     -2750.925       1708.8692      2519.7291     -12.299352    
    510000   296.26053     -2711.0856      1672.1917      2493.4915      9.5419808    
    515000   305.50704     -2769.5133      1653.3657      2526.4863      17.174142    
    520000   303.42445     -2781.8488      1668.3224      2504.2761      15.791234    
    525000   300.38993     -2769.8294      1708.6816      2520.4735      35.763284    
    530000   294.68804     -2721.0112      1700.4008      2493.0259      8.4185441    
    535000   304.3783      -2751.401       1695.3875      2573.1621      15.818678    
    540000   301.34284     -2760.5781      1713.4108      2545.8158      5.5445503    
    545000   301.29998     -2766.7564      1661.1315      2486.8471      13.060845    
    550000   298.71238     -2763.5503      1727.5393      2525.6085     -13.371079    
    555000   296.50115     -2756.1049      1686.579       2465.7285     -3.9804255    
    560000   303.60685     -2750.3564      1683.9825      2553.6034      3.4629783    
    565000   305.92884     -2746.6377      1664.9569      2565.9822      12.376401    
    570000   301.37816     -2746.4396      1664.689       2511.6536     -1.0088818    
    575000   300.847       -2735.7103      1670.3241      2521.6849      12.186125    
    580000   310.13429     -2732.9176      1738.1083      2702.9963      17.541404    
    585000   299.06832     -2721.7671      1670.1712      2514.2675      6.2353935    
    590000   299.26298     -2702.7467      1708.9971      2574.4347      2.6103824    
    595000   306.70786     -2720.9059      1715.6627      2651.7083      11.998003    
    600000   300.37239     -2731.5779      1692.8931      2542.7274     -19.214093    
    605000   298.12222     -2691.2673      1687.9776      2551.2931     -0.2447425    
    610000   302.42433     -2685.1606      1651.1427      2571.8601      8.6403936    
    615000   296.31406     -2754.3162      1656.7013      2435.4088     -7.7360727    
    620000   308.13919     -2745.02        1654.8499      2583.8475      10.193793    
    625000   300.33916     -2683.4609      1719.0089      2616.5639     -10.98117     
    630000   301.00706     -2756.5159      1678.2669      2510.7305     -4.154364     
    635000   303.3506      -2748.183       1723.9747      2592.7138     -4.3509219    
    640000   303.71992     -2741.6302      1701.7284      2581.4237     -5.164849     
    645000   298.43435     -2703.4057      1660.8025      2515.7013      17.215455    
    650000   300.56237     -2724.4636      1709.345       2568.5588     -4.9651063    
    655000   298.60524     -2702.4151      1719.381       2577.3079      6.3472872    
    660000   302.39242     -2724.7612      1680.3029      2561.0392      24.626889    
    665000   302.37912     -2704.977       1688.8592      2589.2211      24.547772    
    670000   297.20748     -2745.4536      1698.7936      2497.0162      3.8645424    
    675000   302.50103     -2717.769       1677.4841      2566.5076      17.984283    
    680000   300.26864     -2725.2293      1696.6522      2551.5979     -28.489546    
    685000   298.59665     -2713.8032      1731.3237      2577.7601      15.123944    
    690000   300.33425     -2757.1352      1680.5465      2504.3687      5.3806208    
    695000   294.37221     -2779.4826      1732.6843      2463.0723     -5.1714739    
    700000   305.27051     -2778.4321      1735.4544      2596.836       4.4680202    
    705000   304.06877     -2763.3007      1749.9978      2612.1821      0.49380229   
    710000   301.64058     -2786.0764      1680.5087      2490.9654      17.365097    
    715000   300.45615     -2786.442       1683.9922      2479.9611      5.4800937    
    720000   296.64521     -2804.3893      1646.2265      2378.8094      6.1319244    
    725000   298.48489     -2793.015       1709.4594      2475.3515      17.969163    
    730000   306.07468     -2765.2875      1636.7711      2520.8856      14.540993    
    735000   301.49567     -2786.1697      1697.1207      2505.7562      6.5661469    
    740000   296.33479     -2791.9763      1671.6169      2412.9114      3.1892166    
    745000   300.98669     -2716.1298      1625.0189      2497.6257      28.456173    
    750000   294.03616     -2726.1537      1671.8273      2451.5373      9.0919586    
    755000   293.51324     -2741.6457      1663.0606      2421.0438     -14.969873    
    760000   310.40708     -2780.4041      1675.0312      2595.6853      8.480092     
    765000   304.30795     -2721.3883      1750.8865      2657.8349     -0.74436125   
    770000   294.74716     -2717.8121      1711.0908      2507.6199     -10.910869    
    775000   296.21886     -2715.4777      1653.6033      2470.0142      6.7055221    
    780000   299.09563     -2709.386       1677.0255      2533.8285     -9.6924619    
    785000   293.19745     -2741.9229      1720.6946      2474.6353      14.684439    
    790000   294.94774     -2731.7779      1703.8152      2488.7701     -19.977122    
    795000   298.27753     -2754.0281      1737.9678      2540.3743     -3.3991957    
    800000   298.28661     -2775.3975      1693.8723      2475.0177      12.982211    
    805000   305.09698     -2786.9009      1718.1772      2569.0208      27.90609     
    810000   302.73772     -2775.4073      1650.4741      2484.6813      5.3054036    
    815000   299.86194     -2808.7953      1670.3457      2436.8764      18.446724    
    820000   303.75123     -2767.8965      1699.6188      2553.4212      20.373981    
    825000   304.591       -2764.1799      1709.9547      2577.4864      32.27377     
    830000   296.95472     -2743.0094      1720.5087      2518.1617     -2.7618599    
    835000   300.24939     -2797.6728      1732.7476      2515.0203     -3.9717661    
    840000   302.32159     -2797.2201      1715.4702      2522.903      -8.0556516    
    845000   305.24704     -2772.6866      1686.6565      2553.5037      15.916562    
    850000   301.03808     -2778.4226      1670.2038      2481.1306     -5.0754923    
    855000   292.58097     -2787.6519      1672.6584      2373.5196      37.067611    
    860000   300.97402     -2807.9098      1714.9318      2495.6076     -4.9682573    
    865000   296.8328      -2775.6332      1664.6023      2428.1779      10.842075    
    870000   303.31553     -2794.9582      1717.9314      2539.477      -5.4827761    
    875000   304.60829     -2784.1016      1722.9101      2570.7262      28.51005     
    880000   300.45358     -2784.675       1667.8892      2465.5944      5.3324448    
    885000   301.65791     -2791.9792      1686.2071      2490.9677      47.415144    
    890000   299.93972     -2820.6103      1660.3938      2416.0369      14.752612    
    895000   293.94672     -2833.969       1756.6678      2427.4961      5.4228623    
    900000   297.92383     -2815.0546      1646.0377      2383.2004      9.8937533    
    905000   296.82346     -2827.2381      1687.86        2399.7193      4.3988376    
    910000   301.96408     -2829.2297      1784.7053      2555.8659      7.0796764    
    915000   293.49754     -2818.8768      1666.0069      2346.5716      6.6918875    
    920000   307.08615     -2850.5188      1631.1626      2442.1057      16.327799    
    925000   298.25551     -2842.0602      1724.8592      2438.9711      1.1705112    
    930000   295.47954     -2849.0103      1673.6816      2347.7448      12.688057    
    935000   297.23537     -2806.0679      1682.4108      2420.3517      14.820644    
    940000   298.67        -2815.4964      1751.8429      2497.4607      7.6205254    
    945000   294.09017     -2812.156       1667.8193      2362.1711      28.271549    
    950000   300.45735     -2846.7305      1694.4484      2430.1431     -35.870209    
    955000   299.43652     -2814.0533      1659.4702      2415.6704      0.62262163   
    960000   298.3326      -2810.2429      1686.607       2433.4553     -4.0925548    
    965000   296.30966     -2838.3657      1713.2865      2407.892       16.977309    
    970000   291.91469     -2807.1727      1725.6491      2399.0453      1.7677602    
    975000   294.38952     -2810.3204      1718.6206      2418.3772      2.0826619    
    980000   296.588       -2779.4467      1717.2769      2474.1202      22.422799    
    985000   298.74181     -2780.5153      1650.3081      2431.7631      26.06548     
    990000   299.18006     -2815.1821      1767.38        2519.3937      20.062989    
    995000   300.14631     -2777.39        1681.1385      2482.465       10.424728    
   1000000   305.10326     -2794.3764      1642.9983      2486.4414      10.08289     
   1005000   303.20577     -2781.441       1693.069       2526.8231      10.118288    
   1010000   302.49819     -2798.2213      1698.9635      2507.5008     -15.776157    
   1015000   297.97302     -2793.7268      1728.9254      2488.0025      49.941781    
   1020000   295.3625      -2803.625       1732.5664      2450.6194      21.775228    
   1025000   305.72895     -2795.7368      1728.0913      2577.6342     -7.6453337    
   1030000   299.64761     -2782.6292      1689.3869      2479.5281      25.759925    
   1035000   298.15403     -2765.853       1676.9094      2466.0185      13.603496    
   1040000   297.79545     -2790.3631      1666.1257      2426.4492      14.653993    
   1045000   304.07945     -2791.0906      1680.7624      2515.2841     -13.884978    
   1050000   304.94051     -2771.482       1670.071       2534.4679     -4.9051682    
   1055000   299.7739      -2779.0641      1674.7584      2469.9705      13.620676    
   1060000   298.93222     -2765.1086      1754.7943      2553.9264      13.00284     
   1065000   303.96126     -2759.6491      1646.9771      2511.5311     -9.5632303    
   1070000   293.22682     -2776.17        1651.296       2371.3398      16.8662      
   1075000   299.7585      -2769.0356      1729.6034      2534.6604     -5.7766081    
   1080000   303.91938     -2769.1871      1665.0367      2519.5533      4.7608542    
   1085000   303.32296     -2776.4452      1696.7181      2536.8654      7.6545852    
   1090000   306.16074     -2766.9119      1642.1822      2525.6984      18.131837    
   1095000   300.87552     -2768.1227      1693.1865      2512.4749     -14.359725    
   1100000   303.66167     -2778.2798      1692.1134      2534.4645      2.177379     
   1105000   291.8554      -2750.5721      1690.4873      2419.7773      48.447857    
   1110000   301.87039     -2811.3161      1642.1048      2430.062       12.797767    
   1115000   299.62258     -2773.9155      1690.4405      2488.9969     -11.99418     
   1120000   295.86813     -2774.6575      1709.4669      2462.5163      14.248574    
   1125000   303.54788     -2761.6496      1684.3379      2541.9627      10.519965    
   1130000   297.6935      -2768.184       1758.0461      2539.3332     -7.6425913    
   1135000   307.74221     -2750.7705      1664.8024      2583.3163     -8.3841306    
   1140000   305.66025     -2731.8237      1702.9644      2615.6012     -11.718794    
   1145000   306.41014     -2741.7229      1706.2074      2617.8862      12.410732    
   1150000   302.04114     -2755.6612      1696.2406      2541.8885     -19.134124    
   1155000   309.42081     -2739.2196      1681.4445      2631.5235      24.174825    
   1160000   302.38371     -2762.5464      1716.3634      2559.2106      27.266294    
   1165000   298.81374     -2740.175       1693.8253      2516.4783     -1.2151161    
   1170000   298.31665     -2760.275       1660.317       2456.9432      17.877244    
   1175000   292.60372     -2760.7231      1673.0586      2401.1199      19.865198    
   1180000   308.93962     -2786.4666      1683.1683      2580.263       1.0846243    
   1185000   296.85308     -2763.4038      1732.7404      2508.7872      14.475191    
   1190000   291.90143     -2762.4569      1777.4873      2495.4413      16.277422    
   1195000   298.76947     -2731.4013      1740.998       2571.8969     -7.042611     
   1200000   299.306       -2730.2564      1667           2505.441       2.6201996    
   1205000   298.78948     -2738.9203      1718.2821      2541.9005     -10.290828    
   1210000   294.73735     -2723.5459      1675.2601      2465.9384      14.562215    
   1215000   299.61779     -2738.3293      1681.1404      2515.226      -17.964141    
   1220000   300.0808      -2716.4321      1651.6452      2513.1485      2.7728327    
   1225000   303.44933     -2766.5729      1703.1807      2554.707       1.6642167    
   1230000   305.03392     -2744.7265      1628.6965      2520.9628      15.71297     
   1235000   293.21323     -2729.7129      1656.0156      2422.3545      23.561519    
   1240000   301.1674      -2715.3561      1635.9913      2511.5265     -6.6211196    
   1245000   303.6533      -2730.9533      1658.3532      2547.9312      24.919568    
   1250000   295.50435     -2720.3578      1700.3416      2503.3532      15.601131    
   1255000   303.05559     -2697.8438      1681.4364      2596.9972     -4.6244311    
   1260000   298.79988     -2745.0876      1800.1533      2617.7285      2.6259357    
   1265000   300.2053      -2706.8003      1729.1018      2601.7214      7.8534929    
   1270000   305.51421     -2748.4747      1678.0641      2572.3088     -1.2931433    
   1275000   299.44565     -2746.5274      1694.1516      2517.9867      18.644903    
   1280000   305.3125      -2756.2485      1710.2541      2594.3199      37.08732     
   1285000   297.66942     -2719.7806      1686.4974      2515.9008      19.588322    
   1290000   305.13303     -2752.8097      1708.3601      2593.7248      8.7161221    
   1295000   305.10616     -2740.105       1624.4249      2522.174       1.0746414    
   1300000   296.56602     -2791.7508      1720.2624      2464.5394      4.5100167    
   1305000   298.76066     -2814.2885      1743.5326      2491.4392      7.0855132    
   1310000   297.51708     -2812.5653      1705.9522      2440.7544      11.524084    
   1315000   300.06222     -2791.4755      1670.0513      2456.2897      39.838694    
   1320000   295.65093     -2783.7916      1676.5624      2417.8879      5.4044559    
   1325000   297.00033     -2820.3496      1675.9391      2396.7958      25.979046    
   1330000   299.68838     -2780.5266      1638.008       2430.7379      27.730947    
   1335000   297.17754     -2774.41        1701.6658      2470.5749      35.605231    
   1340000   301.70708     -2788.6157      1709.2448      2517.9551      13.831545    
   1345000   300.60145     -2802.5717      1660.2175      2441.789      -2.6287156    
   1350000   303.56233     -2831.0107      1715.5937      2504.0295     -9.1278062    
   1355000   300.95043     -2780.827       1692.9276      2500.4049     -3.5238288    
   1360000   305.65584     -2799.9367      1710.4719      2554.9433     -3.0799448    
   1365000   294.24736     -2798.0768      1647.8371      2358.1424      9.2582762    
   1370000   309.14186     -2765.2882      1713.9971      2634.6815      35.766277    
   1375000   297.28925     -2790.0813      1636.8783      2391.4482      15.311066    
   1380000   303.00438     -2768.4311      1694.2945      2538.6574      4.6946362    
   1385000   296.16362     -2781.2293      1739.8742      2489.8748     -4.2050708    
   1390000   299.96016     -2732.1737      1658.33        2502.6533      27.095819    
   1395000   300.77876     -2729.3814      1688.9471      2545.8231      1.3072414    
   1400000   299.25436     -2731.3767      1689.5164      2526.2214     -4.2640881    
   1405000   301.50399     -2748.4589      1710.918       2557.3636      13.137075    
   1410000   297.53762     -2774.7482      1730.7772      2503.6415     -24.619373    
   1415000   303.75624     -2728.5754      1654.5053      2547.6885      25.53907     
   1420000   303.89803     -2694.1193      1709.2709      2638.6007      17.400363    
   1425000   301.7418      -2736.153       1716.3312      2577.9182      10.610563    
   1430000   291.68027     -2747.4792      1706.3017      2436.5965     -8.9524158    
   1435000   302.82742     -2718.6728      1690.1643      2582.1756      28.898532    
   1440000   293.7413      -2755.8564      1666.9898      2413.4815      0.28367268   
   1445000   304.69547     -2775.5336      1694.9379      2552.3616      33.665154    
   1450000   301.87409     -2782.462       1675.0211      2491.8764     -4.5388419    
   1455000   295.50571     -2764.4169      1691.8553      2450.824      -0.091480008  
   1460000   295.90189     -2767.297       1666.9552      2427.7676      24.568292    
   1465000   298.42968     -2805.8545      1799.011       2551.4053      6.413483     
   1470000   299.6092      -2811.9403      1705.4318      2465.804       16.009278    
   1475000   305.4382      -2855.7741      1749.8491      2535.888       11.673753    
   1480000   299.20508     -2775.6844      1706.7992      2498.6089      1.9179904    
   1485000   303.05826     -2765.4449      1704.4492      2552.4407      0.5756192    
   1490000   299.27721     -2769.7587      1654.8363      2453.4317      11.24159     
   1495000   301.36793     -2748.5339      1700.9938      2545.7421     -10.094712    
   1500000   299.06738     -2796.0061      1640.3101      2410.1562      11.133012    
   1505000   302.32925     -2768.0815      1721.5699      2558.2326     -4.399403     
   1510000   304.0119      -2766.5597      1663.7416      2521.9887      8.0390709    
   1515000   300.13925     -2765.0618      1661.6204      2475.191       16.787734    
   1520000   292.30093     -2795.9501      1655.5741      2344.7981      0.042637743  
   1525000   297.33088     -2748.0794      1698.6261      2495.6942     -4.843539     
   1530000   293.69278     -2775.3267      1672.4159      2398.8588      29.916833    
   1535000   300.03236     -2756.8813      1660.3653      2480.8419     -5.5055106    
   1540000   299.61119     -2746.4368      1633.284       2459.1834      7.1123245    
   1545000   296.87738     -2728.1206      1685.4938      2497.1137      13.947494    
   1550000   299.87764     -2727.7605      1682.397       2530.1497      14.765425    
   1555000   297.99627     -2740.9356      1731.7788      2543.9243      13.111764    
   1560000   299.67442     -2782.1523      1753.7804      2544.7182      20.9438      
   1565000   301.5755      -2733.6243      1733.4539      2595.5867     -19.728726    
   1570000   302.07306     -2715.572       1710.9945      2597.1121     -1.7677112    
   1575000   296.17475     -2751.5468      1763.3232      2543.1392      4.4108664    
   1580000   303.57472     -2735.2957      1720.3265      2604.6251     -5.1010649    
   1585000   292.90203     -2773.9441      1749.4619      2467.859       2.1851022    
   1590000   302.63496     -2760.7979      1693.254       2540.8454     -4.6571551    
   1595000   297.33791     -2757.4543      1670.7748      2458.5519      0.33674154   
   1600000   297.80804     -2747.1839      1744.3589      2548.0118     -0.08001008   
   1605000   298.79816     -2738.9895      1667.314       2490.9667      33.866249    
   1610000   301.44361     -2774.203       1652.4986      2472.4802      36.463504    
   1615000   303.13171     -2773.0096      1735.7003      2577.0028      32.478709    
   1620000   305.63048     -2762.4333      1677.067       2558.7393      6.7146493    
   1625000   295.13271     -2764.7294      1717.2179      2471.4267     -2.324692     
   1630000   303.88592     -2766.8592      1699.8359      2556.2815      16.467485    
   1635000   301.73132     -2784.5238      1729.6777      2542.7689      20.738437    
   1640000   304.33341     -2766.5934      1665.6122      2527.6591      9.8325036    
   1645000   294.87149     -2790.9927      1662.5933      2387.4242      14.293377    
   1650000   296.38275     -2813.8821      1664.655       2384.6156     -22.005983    
   1655000   300.126       -2780.5144      1624.6083      2422.5683      11.894999    
   1660000   298.32083     -2789.2261      1737.206       2504.9308      16.330957    
   1665000   303.83318     -2775.3667      1737.957       2585.2663      5.4521233    
   1670000   302.43677     -2793.8097      1660.2206      2472.437      -10.024362    
   1675000   296.32846     -2811.0859      1714.235       2436.3445     -1.8959228    
   1680000   305.58178     -2761.0266      1737.6889      2620.1873     -2.9037566    
   1685000   304.24747     -2793.2032      1707.9269      2542.3394     -0.78168526   
   1690000   303.39695     -2797.6007      1680.9749      2500.8489      30.202969    
   1695000   297.52098     -2786.7754      1669.3587      2429.9974      17.484616    
   1700000   303.91167     -2765.3569      1690.811       2549.066       1.0526939    
   1705000   297.26717     -2764.5051      1716.6018      2496.4845     -11.837791    
   1710000   301.38215     -2758.5836      1634.4504      2469.3186      4.7388285    
   1715000   298.15024     -2753.1492      1675.3832      2477.151       4.0536174    
   1720000   301.53662     -2758.1261      1639.6969      2476.8643      27.64538     
   1725000   297.12784     -2724.1388      1694.7693      2513.3571     -14.851283    
   1730000   297.78014     -2749.1433      1781.6317      2582.9926      3.8332283    
   1735000   300.62981     -2718.829       1618.584       2484.2364      16.041609    
   1740000   296.27665     -2721.1799      1689.7591      2501.1569      26.70103     
   1745000   296.66923     -2728.0459      1699.788       2509.0006     -1.3951614    
   1750000   299.34401     -2699.4738      1659.2641      2528.9408      1.8726655    
   1755000   296.41674     -2749.3266      1670.6813      2455.6028      36.488924    
   1760000   303.33214     -2743.2239      1691.1013      2564.5794      10.868732    
   1765000   302.02081     -2750.1872      1651.7828      2502.6623     -9.5786781    
   1770000   303.36214     -2712.2062      1659.6461      2564.4996      12.310724    
   1775000   300.35258     -2730.085       1735.0973      2586.1882      7.7191866    
   1780000   300.08649     -2753.8451      1712.0458      2536.204       15.944882    
   1785000   301.63624     -2725.5884      1772.9879      2643.8809      16.950685    
   1790000   299.67355     -2701.6707      1634.4552      2505.8643      7.5368496    
   1795000   301.53095     -2731.3061      1634.8074      2498.7272      14.394919    
   1800000   302.30044     -2705.8383      1701.014       2599.5765     -15.04381     
   1805000   296.47797     -2728.6301      1694.9677      2501.3156      18.112741    
   1810000   297.90957     -2746.1342      1674.8057      2480.7189     -7.3811447    
   1815000   302.99027     -2702.5133      1673.511       2583.6234      11.524252    
   1820000   292.69771     -2689.2213      1721.2524      2521.9361      12.57493     
   1825000   302.98553     -2693.6775      1706.592       2625.4838      27.091331    
   1830000   301.24645     -2696.2748      1707.872       2603.4309      26.045157    
   1835000   304.71482     -2712.7232      1689.3083      2609.7731      10.232591    
   1840000   299.78158     -2693.5657      1689.3547      2570.1568     -16.771973    
   1845000   303.84755     -2715.7004      1732.5536      2639.7005      19.317176    
   1850000   298.5978      -2685.4849      1734.998       2609.7663     -6.2451263    
   1855000   295.53825     -2690.3461      1675.812       2509.2394     -6.0488882    
   1860000   303.51569     -2696.5875      1677.5394      2599.8424      44.384193    
   1865000   298.74675     -2727.3547      1702.2353      2536.9098     -1.1403758    
   1870000   301.28239     -2658.6425      1739.3059      2672.9258      12.220186    
   1875000   308.12958     -2671.3251      1684.0199      2686.5978      4.9622464    
   1880000   306.24175     -2676.7079      1721.244       2695.9299      2.4307731    
   1885000   297.36904     -2703.4117      1712.8424      2555.0332      17.217947    
   1890000   297.5039      -2664.6605      1704.0785      2586.6285      11.823994    
   1895000   298.1443      -2654.9573      1684.6879      2584.5767     -12.863036    
   1900000   301.36873     -2691.499       1634.8856      2536.6783      26.805488    
   1905000   294.96536     -2713.4856      1677.6054      2481.0626      17.129747    
   1910000   293.74234     -2726.6819      1668.2152      2443.8938      4.5156619    
   1915000   296.34151     -2735.9257      1732.6627      2530.088       21.335543    
   1920000   302.47538     -2776.3053      1695.8705      2526.0518     -9.3638526    
   1925000   303.41209     -2765.6317      1707.9598      2559.9833     -2.9142623    
   1930000   304.78466     -2771.8454      1728.6732      2590.8486      10.470642    
   1935000   301.56658     -2729.9826      1698.2985      2563.9667      29.189468    
   1940000   298.96194     -2741.8951      1730.9474      2553.6473      6.0496319    
   1945000   303.35631     -2799.8738      1716.6232      2533.7395      33.499341    
   1950000   305.89708     -2826.716       1715.8731      2536.4415     -9.9135727    
   1955000   299.04905     -2818.9242      1678.9479      2425.6573      9.5349287    
   1960000   303.70666     -2825.4079      1719.0459      2514.8055     -7.941976     
   1965000   297.4245      -2797.5506      1727.8231      2476.5363      22.835478    
   1970000   292.97656     -2810.3171      1769.4838      2452.3966      7.4911382    
   1975000   295.19763     -2798.9896      1659.3926      2380.1152      3.627379     
   1980000   299.2914      -2821.1402      1749.546       2496.929       9.6839067    
   1985000   300.31574     -2768.6825      1679.0793      2491.1334      19.179695    
   1990000   305.62593     -2766.0985      1674.459       2552.4119     -7.2641865    
   1995000   299.86297     -2755.2363      1691.6789      2511.7808      18.171555    
   2000000   297.21579     -2761.7721      1750.5173      2532.5204      26.922129    
   2005000   299.34654     -2771.7227      1712.2909      2509.7489      0.56535826   
   2010000   299.02415     -2754.0423      1686.2904      2497.5849      2.925748     
   2015000   290.17484     -2747.2769      1704.3235      2416.8709      35.763721    
   2020000   297.56289     -2765.2187      1649.3734      2432.0686      24.031595    
   2025000   303.80231     -2753.8173      1750.5651      2619.0557      12.517169    
   2030000   294.21827     -2777.4449      1612.9701      2343.5604     -19.740603    
   2035000   295.43982     -2742.6831      1660.6747      2440.5915      29.604091    
   2040000   308.24184     -2798.4674      1716.2318      2593.0059      25.27247     
   2045000   304.49935     -2767.738       1692.6387      2555.5196     -0.085266776  
   2050000   293.50411     -2767.2368      1671.1907      2403.4739     -19.565923    
   2055000   306.36175     -2772.4406      1705.7942      2586.1783      6.1289883    
   2060000   296.15279     -2787.0373      1698.941       2443.0045      23.020993    
   2065000   305.86045     -2795.7521      1656.3168      2507.4124     -10.900431    
   2070000   304.89955     -2754.3655      1641.0417      2522.0668      16.422332    
   2075000   304.05771     -2764.5047      1704.5366      2565.385       14.113606    
   2080000   304.94167     -2723.6403      1668.2027      2580.4552      22.651055    
   2085000   307.13772     -2740.6123      1657.5328      2578.9973     -1.7766576    
   2090000   301.52967     -2732.6417      1649.8055      2512.3745      23.103143    
   2095000   304.73276     -2721.0062      1705.297       2617.6927      0.22094311   
   2100000   300.7374      -2725.1567      1654.1854      2514.793      -3.755282     
   2105000   299.42428     -2736.5385      1763.974       2597.5431     -0.68345591   
   2110000   300.67125     -2747.2671      1692.6886      2530.3969     -18.241666    
   2115000   314.33692     -2697.5919      1716.2313      2766.5539      15.599087    
   2120000   302.56025     -2704.8169      1693.3677      2596.0492     -0.20639872   
   2125000   300.85594     -2664.7007      1702.6744      2625.1514      15.240656    
   2130000   290.96424     -2723.1938      1689.0232      2435.066       23.956656    
   2135000   302.81292     -2683.4818      1702.7308      2629.7601      8.9337967    
   2140000   297.44708     -2738.9172      1690.2569      2497.8727      2.1611126    
   2145000   307.8514      -2700.6554      1719.3969      2689.3277      1.4413038    
   2150000   300.16587     -2691.5012      1699.1451      2586.5936      11.390208    
   2155000   292.59657     -2722.9274      1688.9913      2454.7631      20.272956    
   2160000   297.369       -2736.7238      1674.4583      2483.3365      3.7006719    
   2165000   291.36999     -2707.6788      1712.7826      2479.1781      2.5493615    
   2170000   303.59106     -2718.1875      1747.8859      2649.4875      18.677608    
   2175000   304.38348     -2719.2651      1694.083       2604.0552      11.406974    
   2180000   297.94163     -2692.1481      1621.4065      2481.6881      18.923317    
   2185000   303.13358     -2674.7084      1683.2126      2622.8386      16.411306    
   2190000   305.33776     -2721.1959      1642.0344      2561.4539     -9.7375308    
   2195000   302.73835     -2728.7357      1701.0218      2581.9082      14.233527    
   2200000   300.97881     -2721.7788      1699.1352      2565.999       16.324117    
   2205000   298.80346     -2725.8679      1775.958       2612.7955      8.7454402    
   2210000   295.34381     -2722.8138      1680.9417      2479.5831     -0.54153709   
   2215000   299.26856     -2702.2702      1728.5696      2594.5503      6.9595165    
   2220000   294.83875     -2750.8611      1662.2497      2426.8218     -2.358859     
   2225000   304.79969     -2737.4724      1692.8537      2589.5812      16.184045    
   2230000   302.93549     -2746.8268      1685.8782      2551.024      -7.8485794    
   2235000   298.48267     -2770.106       1699.2134      2487.9879      8.4735588    
   2240000   302.93237     -2758.6111      1703.4936      2556.8179      8.2680743    
   2245000   304.46464     -2756.1834      1664.6412      2538.6628      5.9579905    
   2250000   296.03553     -2733.6418      1683.5386      2479.5996      23.232454    
   2255000   306.16077     -2789.2873      1655.2623      2516.4033      22.790727    
   2260000   295.82731     -2773.235       1678.8842      2432.8692      23.300573    
   2265000   293.1432      -2727.0302      1674.5097      2442.6964      21.57958     
   2270000   301.50775     -2713.9525      1691.6798      2572.6765     -2.4586487    
   2275000   301.62094     -2743.211       1622.148       2475.2359      3.1600268    
   2280000   300.86623     -2708.9433      1733.0578      2611.4149     -4.554757     
   2285000   299.47967     -2720.5565      1708.4828      2558.6944      24.716696    
   2290000   294.63051     -2737.3202      1738.6405      2514.2706     -18.470874    
   2295000   302.88967     -2718.208       1722.4638      2615.6821      23.932476    
   2300000   306.54107     -2763.6079      1692.2107      2583.5656      21.728078    
   2305000   301.79627     -2725.0485      1672.2816      2545.6225      17.771274    
   2310000   304.27254     -2726.1793      1684.0275      2585.7628      22.695129    
   2315000   297.7551      -2766.2704      1690.8322      2474.7674     -1.5064916    
   2320000   308.23675     -2722.9233      1640.7779      2593.0355      13.699122    
   2325000   305.83662     -2741.2459      1699.1009      2604.4185     -17.496977    
   2330000   304.61749     -2755.5386      1619.8695      2496.3584      9.50315      
   2335000   294.59733     -2790.7105      1728.9078      2450.752       8.5115868    
   2340000   302.62243     -2794.2758      1712.817       2526.7811     -7.3235205    
   2345000   298.43537     -2743.1754      1672.2052      2487.3463      11.597809    
   2350000   295.83773     -2783.6374      1739.0008      2482.7078      0.95665651   
   2355000   300.99821     -2764.2664      1656.3549      2480.9625     -21.623644    
   2360000   300.18207     -2775.5306      1741.6535      2545.2658      5.4111057    
   2365000   299.99529     -2755.752       1705.1013      2526.2651      4.8101196    
   2370000   304.55282     -2755.9932      1709.0614      2584.3246     -4.5927093    
   2375000   302.66323     -2789.4892      1681.7596      2500.9968      15.290938    
   2380000   302.08154     -2737.2592      1683.7081      2548.2396     -23.738721    
   2385000   295.51784     -2748.5158      1730.6142      2505.6287      0.063916769  
   2390000   297.18263     -2783.3525      1660.5946      2420.622      -2.2499591    
   2395000   297.24987     -2777.4482      1693.5907      2460.3241      2.1172852    
   2400000   301.3381      -2771.9812      1729.0663      2550.0116     -5.9555962    
   2405000   298.6437      -2797.0266      1705.1184      2468.8924      21.777833    
   2410000   295.13777     -2779.8362      1736.5533      2475.7157      6.5738722    
   2415000   301.41916     -2790.7046      1632.6533      2435.8418      13.162462    
   2420000   296.36949     -2786.2097      1695.4438      2442.9188      9.3427982    
   2425000   300.31947     -2750.3424      1680.3545      2510.7932     -5.5902926    
   2430000   301.74412     -2785.3684      1683.1559      2495.5552     -0.69745756   
   2435000   300.02562     -2753.2416      1686.3348      2510.3707     -1.2394404    
   2440000   300.31787     -2730.1167      1714.2316      2564.8771      5.6060026    
   2445000   301.5925      -2723.8549      1673.7618      2545.8666      15.529628    
   2450000   294.83281     -2723.6501      1676.7104      2468.4227      26.840503    
   2455000   295.52999     -2701.6875      1684.1869      2506.1744      2.729101     
   2460000   299.28149     -2718.7145      1671.3617      2521.0523      7.0554791    
   2465000   297.60231     -2716.5994      1703.4425      2535.2269      14.840772    
   2470000   298.98107     -2746.5394      1708.5644      2526.848       64.704451    
   2475000   301.45703     -2721.5872      1726.8165      2599.5739      7.2046287    
   2480000   295.09172     -2723.3961      1682.9947      2478.0482      3.475284     
   2485000   299.59064     -2747.7292      1690.0044      2514.3663     -8.4546085    
   2490000   292.72506     -2724.2759      1649.9913      2415.9467     -4.9486987    
   2495000   302.08665     -2754.2929      1649.705       2497.2639      17.329909    
   2500000   302.03369     -2740.4569      1703.1226      2563.886       24.814106    
   2505000   302.74119     -2779.1192      1696.2444      2526.7811      8.3138675    
   2510000   303.44996     -2713.2301      1719.6759      2624.5526      18.609695    
   2515000   298.96318     -2730.957       1705.0931      2538.7459      7.5533232    
   2520000   306.03338     -2740.5912      1626.4202      2534.7385      9.2165388    
   2525000   298.64367     -2697.0282      1731.96        2595.732      -3.9870753    
   2530000   297.03521     -2727.2524      1676.0575      2490.4271      6.4433361    
   2535000   294.16233     -2728.0683      1692.3518      2471.6516      23.95875     
   2540000   294.23549     -2724.5679      1681.5565      2465.2291      44.652981    
   2545000   295.50835     -2702.6469      1642.7619      2463.532       3.3892184    
   2550000   300.82356     -2760.1931      1677.3745      2503.9729      22.187511    
   2555000   290.72728     -2751.011       1767.7121      2483.1124      5.6796329    
   2560000   299.54986     -2744.6212      1742.1425      2569.1263     -8.313544     
   2565000   299.39609     -2740.0104      1700.0399      2529.801      -8.587909     
   2570000   298.40891     -2708.4827      1668.5461      2518.0645      10.256301    
   2575000   297.22032     -2728.3913      1731.3007      2546.7386      15.650992    
   2580000   298.60254     -2711.9287      1705.6539      2554.035       5.1591993    
   2585000   306.17133     -2744.5746      1629.0566      2535.0363      17.929522    
   2590000   297.82527     -2729.0693      1688.6215      2510.5944      12.466984    
   2595000   301.58035     -2708.5079      1673.4401      2560.7471     -2.6683762    
   2600000   301.42163     -2719.5954      1728.0218      2602.3489     -11.742894    
   2605000   290.1142      -2709.5642      1740.5608      2490.098       6.1953416    
   2610000   305.62031     -2730.8658      1720.5899      2633.7085     -1.3544463    
   2615000   301.92048     -2700.4675      1709.7528      2609.1557      8.1448347    
   2620000   300.23635     -2716.6434      1642.2548      2505.4016     -10.186159    
   2625000   295.14361     -2714.094       1686.1489      2491.123       1.1257779    
   2630000   305.62854     -2741.7806      1686.023       2588.325       1.911675     
   2635000   299.48851     -2722.7396      1720.3214      2568.4553      5.2915676    
   2640000   297.4378      -2735.8628      1751.2817      2561.8412      19.992298    
   2645000   294.81435     -2681.2134      1671.7952      2505.7241     -22.878195    
   2650000   305.64393     -2693.1096      1736.0015      2687.1579      16.591415    
   2655000   303.56235     -2727.9662      1673.7938      2565.2744      2.2794114    
   2660000   294.59273     -2712.0857      1691.4982      2491.9124      46.08051     
   2665000   302.32712     -2686.8708      1687.5396      2605.3876     -4.7400975    
   2670000   299.32856     -2644.8893      1654.0579      2578.1349      11.504415    
   2675000   301.29627     -2641.7254      1706.7825      2657.4849      21.061914    
   2680000   301.17183     -2672.6206      1681.7107      2600.0341      9.0238164    
   2685000   304.51446     -2649.6448      1731.3227      2712.4769      6.8893747    
   2690000   297.68444     -2686.7527      1697.2823      2559.8926      31.778775    
   2695000   305.48237     -2706.3041      1704.0784      2640.114       24.433996    
   2700000   306.83151     -2682.9925      1661.0691      2636.5024      2.7147972    
   2705000   301.78525     -2669.4039      1690.0303      2618.8844      5.5307631    
   2710000   299.99156     -2693.4732      1705.7058      2589.104       22.133947    
   2715000   298.86766     -2686.8278      1738.5349      2615.1779      1.9941839    
   2720000   295.54394     -2715.7093      1730.2856      2538.4176     -10.254781    
   2725000   297.0424      -2753.9204      1619.7101      2407.4976      35.023648    
   2730000   302.02301     -2763.1485      1708.7362      2546.6806      2.0630107    
   2735000   292.78143     -2764.8406      1685.9868      2412.0494     -3.2040221    
   2740000   302.50512     -2738.6623      1751.2744      2619.4533      19.688038    
   2745000   298.78005     -2764.6305      1653.7391      2451.5349      1.4120943    
   2750000   291.84728     -2794.5152      1678.5243      2363.7743      3.6354493    
   2755000   301.51876     -2762.2319      1716.4832      2549.3318      20.470839    
   2760000   301.51947     -2760.5204      1683.7861      2518.3548      30.585787    
   2765000   299.94201     -2775.3674      1704.8613      2505.7745      24.703724    
   2770000   297.597       -2770.6683      1688.5774      2466.2296     -10.432287    
   2775000   293.66956     -2747.1309      1652.9066      2407.2684     -30.131104    
   2780000   302.41124     -2753.3939      1702.769       2555.0969     -2.1400955    
   2785000   297.06406     -2771.6185      1676.6741      2447.0217     -8.513054     
   2790000   299.70549     -2722.9631      1729.7401      2580.2376      18.688104    
   2795000   295.66638     -2776.6472      1697.9798      2446.6339     -8.7307298    
   2800000   298.39233     -2809.7347      1666.6739      2414.7425     -21.828564    
   2805000   300.70151     -2757.0528      1680.3931      2508.6767      23.554456    
   2810000   299.98845     -2776.1747      1714.7252      2515.3849      1.0732597    
   2815000   294.22142     -2758.9571      1598.5188      2347.6343      9.3966005    
   2820000   297.95182     -2808.7022      1662.1659      2406.0148      9.4176913    
   2825000   295.59801     -2804.3998      1684.1721      2404.2584      11.136819    
   2830000   303.87663     -2767.3338      1728.5478      2584.4081      2.5418462    
   2835000   296.05768     -2701.2668      1700.7479      2529.448       19.427487    
   2840000   299.32347     -2738.0012      1678.7845      2509.689      -19.62176     
   2845000   301.21507     -2719.7305      1651.4526      2523.1818      7.3347238    
   2850000   302.59554     -2726.6228      1677.5975      2558.8939      18.13785     
   2855000   300.1582      -2747.3123      1740.6374      2572.1835      2.5628132    
   2860000   303.62613     -2744.176       1723.076       2599.1072      37.774448    
   2865000   296.20615     -2736.1201      1675.6829      2471.2998      19.608225    
   2870000   299.47266     -2694.9861      1696.2806      2571.979       25.442747    
   2875000   301.25787     -2696.8772      1672.472       2567.5647      23.90782     
   2880000   304.61358     -2706.4803      1702.4756      2627.9761      24.070608    
   2885000   300.77693     -2711.7721      1737.5534      2612.0169      7.6445761    
   2890000   299.74074     -2738.5838      1701.0446      2536.3416      12.086786    
   2895000   303.74835     -2742.7228      1651.4997      2530.4415     -1.2937162    
   2900000   295.70424     -2703.4778      1712.3643      2534.6391      5.4704643    
   2905000   298.09819     -2711.5853      1657.0401      2499.7512      5.11841      
   2910000   299.41754     -2739.182       1655.3846      2486.2299      4.6210921    
   2915000   294.17762     -2751.4909      1731.6013      2487.6609      3.2587339    
   2920000   301.36357     -2750.0591      1693.7576      2536.9288     -16.6883      
   2925000   300.15542     -2739.5892      1668.7141      2507.9501      4.2447336    
   2930000   296.04562     -2734.823       1710.9012      2505.9012      11.343835    
   2935000   299.20151     -2719.0692      1667.2628      2515.645       5.6502785    
   2940000   300.75518     -2757.7342      1623.6052      2451.8473     -3.080769     
   2945000   296.6111      -2760.6779      1716.0559      2491.9434      3.8952016    
   2950000   307.28817     -2747.4875      1747.7629      2664.1461      14.285418    
   2955000   310.14831     -2781.9065      1708.883       2624.9492      1.3624601    
   2960000   296.29313     -2774.3375      1663.5561      2421.9928     -9.3023408    
   2965000   300.89776     -2787.9675      1640.9527      2440.6615     -19.43208     
   2970000   304.21535     -2791.7862      1675.9951      2511.4415     -17.508711    
   2975000   298.75647     -2803.8887      1678.0824      2436.3388      11.199087    
   2980000   297.01259     -2757.1864      1706.0781      2490.2442      36.760936    
   2985000   301.18557     -2778.013       1729.1306      2542.2255      14.025578    
   2990000   290.83083     -2734.8531      1681.258       2414.0508      17.161498    
   2995000   304.36629     -2745.6825      1657.9065      2541.2563     -5.8487691    
   3000000   296.94489     -2777.1936      1648.46        2411.8116      12.839498    
   3005000   297.73064     -2804.3524      1656.689       2402.2505     -21.522985    
   3010000   296.39499     -2805.1727      1699.7417      2428.5576     -12.012293    
   3015000   298.10219     -2776.3637      1681.0659      2459.0462      26.39616     
   3020000   294.47864     -2789.6831      1714.2865      2435.743       4.7200484    
   3025000   306.43343     -2810.8455      1706.044       2548.8779     -5.6708274    
   3030000   298.21331     -2751.8731      1683.3336      2487.1294      13.208917    
   3035000   296.23884     -2781.3701      1695.0507      2445.8074      6.7557073    
   3040000   296.60705     -2766.8644      1673.218       2442.8708      29.238662    
   3045000   301.13866     -2768.6664      1695.3763      2517.2585     -14.761234    
   3050000   299.90502     -2787.0098      1668.5515      2457.3813      0.43550819   
   3055000   301.60409     -2804.28        1727.409       2519.227       4.1348661    
   3060000   296.73314     -2827.9104      1649.6377      2359.7478      12.860616    
   3065000   299.63044     -2830.3995      1725.7568      2467.9229      5.5248275    
   3070000   298.99317     -2808.5527      1688.1315      2444.5461     -0.087167579  
   3075000   296.63505     -2790.115       1660.0629      2406.7989      5.2117273    
   3080000   298.98968     -2771.0537      1712.7183      2506.5903     -9.0142494    
   3085000   305.15427     -2846.1796      1678.4909      2470.7389      8.9021122    
   3090000   296.65978     -2835.0901      1627.0222      2329.0779     -6.5956564    
   3095000   299.0156      -2850.9096      1662.6022      2376.9274     -5.8714716    
   3100000   304.6318      -2833.7089      1700.2222      2498.7114      16.92526     
   3105000   297.40347     -2807.8427      1659.1431      2397.3134     -16.00583     
   3110000   296.66892     -2799.5593      1664.5073      2402.2028     -16.115582    
   3115000   305.82933     -2827.9381      1677.5342      2496.0727     -6.8520308    
   3120000   298.46045     -2864.8228      1717.5659      2411.3587      26.971273    
   3125000   295.77278     -2798.5593      1708.7431      2436.7537     -4.7160553    
   3130000   306.65387     -2825.3183      1688.8915      2519.881       26.167711    
   3135000   306.31593     -2810.321       1677.836       2519.7934     -8.4384521    
   3140000   308.78616     -2838.5375      1644.04        2487.234       8.6072815    
   3145000   298.96764     -2799.3157      1705.4324      2470.7797      17.187681    
   3150000   303.68327     -2807.3608      1687.7493      2501.277       5.5882313    
   3155000   304.57087     -2819.3074      1677.977       2490.1413      19.408245    
   3160000   298.49791     -2791.7331      1697.613       2464.9422     -5.9175897    
   3165000   300.84251     -2814.6306      1653.5144      2425.9013      26.437874    
   3170000   300.07647     -2831.5953      1647.7916      2394.0802      19.209822    
   3175000   302.32202     -2807.5443      1662.1507      2459.2644      19.195669    
   3180000   306.89334     -2824.8795      1737.2999      2571.5835      20.244317    
   3185000   294.65528     -2784.8409      1694.3259      2422.7306      12.803872    
   3190000   298.5797      -2829.4792      1703.0651      2433.6234     -11.021821    
   3195000   299.67491     -2798.4815      1713.8404      2488.4549      2.8642627    
   3200000   301.90453     -2806.2023      1703.5471      2497.0251      11.311737    
   3205000   294.86797     -2779.2785      1729.7741      2466.2772     -4.4414461    
   3210000   305.3662      -2809.419       1680.3884      2511.924       1.3438348    
   3215000   295.40194     -2818.7126      1730.0754      2433.5111      4.1525103    
   3220000   297.67324     -2824.0401      1640.5965      2365.7859     -2.5340523    
   3225000   296.80219     -2797.832       1666.5228      2407.5346      14.706189    
   3230000   301.93984     -2830.677       1765.0159      2534.4402      2.2302771    
   3235000   304.04467     -2781.7473      1680.9557      2524.4062      11.975787    
   3240000   300.07728     -2806.7204      1689.2535      2460.4267      4.3157187    
   3245000   290.15488     -2824.2021      1678.4243      2313.8085      15.261107    
   3250000   305.22059     -2818.7276      1698.0046      2518.4954      7.4521263    
   3255000   302.69441     -2841.0959      1707.7176      2475.7199     -8.4636419    
   3260000   299.41693     -2846.8943      1620.1987      2343.3243     -8.6791806    
   3265000   297.19182     -2846.2791      1719.9281      2417.1384     -4.3217958    
   3270000   295.6432      -2886.6445      1662.5279      2300.9083      5.9516125    
   3275000   292.24794     -2885.3031      1694.1473      2293.3866      4.1982066    
   3280000   299.44004     -2863.9924      1607.318       2313.6211     -3.9689154    
   3285000   301.38421     -2830.8273      1723.7649      2486.4139      21.605235    
   3290000   296.35471     -2852.6273      1691.9492      2372.8302      20.685795    
   3295000   297.95296     -2847.4769      1659.1665      2364.2543      24.999907    
   3300000   309.04444     -2819.6258      1642.059       2507.2444      3.171356     
   3305000   298.47432     -2878.716       1667.0073      2347.0723      2.7517712    
   3310000   304.1791      -2890.5242      1676.2279      2412.5042      5.6459284    
   3315000   302.12476     -2849.4601      1680.1544      2433.0004     -0.054141287  
   3320000   302.4976      -2879.1895      1702.9431      2430.5051      17.290017    
   3325000   300.90404     -2876.1867      1757.4932      2469.0576     -14.711448    
   3330000   299.83192     -2844.4166      1675.4756      2406.027       16.325156    
   3335000   299.20372     -2838.618       1624.5825      2353.4423      34.802211    
   3340000   300.10452     -2821.2294      1646.9718      2403.9607     -5.6630468    
   3345000   299.66033     -2799.4922      1724.3327      2497.7626      10.102476    
   3350000   300.55761     -2847.2699      1733.9289      2470.2795      21.135537    
   3355000   301.14318     -2835.4791      1659.0215      2414.1449      7.9268834    
   3360000   305.28233     -2854.9628      1658.2767      2443.2684     -4.5611853    
   3365000   297.10986     -2803.0408      1696.2618      2435.7332      33.146022    
   3370000   297.70227     -2841.5696      1674.4289      2382.435      -5.4023553    
   3375000   291.41266     -2820.9199      1681.5572      2335.2204      0.27253257   
   3380000   305.39029     -2849.1318      1678.3652      2470.4753      27.106851    
   3385000   303.82127     -2807.3518      1690.1081      2505.2903      13.230183    
   3390000   296.8945      -2802.2208      1716.0369      2453.7605     -7.7874779    
   3395000   300.70915     -2799.3335      1752.7753      2538.8692     -2.2825456    
   3400000   304.12504     -2837.7544      1679.5132      2467.9147      19.351069    
   3405000   291.2462      -2799.9864      1664.9556      2337.5677      32.643733    
   3410000   300.97419     -2772.5614      1682.4688      2498.495       5.2449044    
   3415000   296.90693     -2794.5093      1675.3854      2420.9688      28.045849    
   3420000   296.33617     -2776.486       1723.8015      2480.6028      9.3463586    
   3425000   298.26006     -2777.2529      1624.7629      2403.7365      29.491957    
   3430000   295.92838     -2752.1748      1712.1523      2488.4026     -4.0705551    
   3435000   303.0489      -2796.2806      1692.0574      2509.1016     -7.820204     
   3440000   301.1402      -2744.8484      1687.4454      2533.1639      17.122016    
   3445000   297.92711     -2758.6812      1711.125       2504.7003     -20.031344    
   3450000   304.33147     -2818.2963      1702.4362      2512.7571     -1.0671127    
   3455000   300.16501     -2783.6668      1712.3567      2507.6294      6.5275954    
   3460000   297.61385     -2802.0316      1694.7362      2441.226      -16.551794    
   3465000   295.99328     -2807.0897      1701.9391      2424.0484      1.0611662    
   3470000   299.78788     -2784.1476      1689.1788      2479.4742     -1.5672574    
   3475000   298.94232     -2765.2661      1671.3582      2470.4532      15.340419    
   3480000   298.78645     -2746.5271      1695.7182      2511.6938     -7.9202078    
   3485000   298.97781     -2765.0637      1702.8941      2502.6147      8.3696252    
   3490000   303.79157     -2724.9922      1708.4138      2605.6015      10.143644    
   3495000   305.05657     -2751.7929      1661.9039      2547.3737      22.664812    
   3500000   296.75417     -2752.872       1746.9417      2532.3409      8.0665819    
   3505000   302.32126     -2763.3346      1707.9039      2549.2184     -2.0367096    
   3510000   298.335       -2775.259       1683           2464.8608     -5.2416868    
   3515000   308.69        -2755.6389      1634.2582      2559.2043      9.1385298    
   3520000   297.76379     -2729.0949      1696.4089      2517.6232      11.286817    
   3525000   298.13345     -2758.4455      1705.9694      2502.2406      27.734933    
   3530000   301.28272     -2700.6071      1688.7382      2580.3973      8.6923832    
   3535000   300.58511     -2710.8313      1664.3876      2537.5047      17.748004    
   3540000   307.20676     -2706.7773      1677.3926      2633.5152      25.359897    
   3545000   298.76025     -2711.3701      1708.2977      2559.1178      11.238985    
   3550000   300.74383     -2726.6124      1713.4855      2572.7141      0.84189927   
   3555000   301.23207     -2691.2092      1707.0873      2607.5405      13.659827    
   3560000   294.98901     -2709.8652      1692.8471      2500.2067      4.8000196    
   3565000   294.30153     -2712.0795      1664.5683      2461.5167      41.507258    
   3570000   299.73199     -2705.8541      1699.0672      2566.9896     -3.8183919    
   3575000   302.09733     -2685.0206      1690.1259      2607.0844      15.640336    
   3580000   306.11176     -2698.2585      1700.9007      2652.4862      28.440704    
   3585000   299.92494     -2696.0087      1685.1969      2565.2653     -3.0304149    
   3590000   300.21231     -2717.6156      1707.7088      2569.5967     -24.196726    
   3595000   302.70271     -2718.6979      1661.4188      2551.9181      20.049483    
   3600000   307.62956     -2704.9181      1682.4299      2645.453       24.4548      
   3605000   301.73587     -2699.8213      1701.5713      2599.4192     -16.908596    
   3610000   302.88093     -2725.631       1681.0741      2566.7653      15.667548    
   3615000   300.03683     -2748.6013      1706.496       2535.3058      18.72824     
   3620000   305.90452     -2755.5469      1680.7036      2572.5298      2.73028      
   3625000   291.94719     -2770.1948      1734.3336      2445.0952     -1.2023691    
   3630000   294.61896     -2764.5723      1678.9231      2427.1634      32.783377    
   3635000   297.70616     -2774.9409      1693.7775      2468.4587     -8.108101     
   3640000   300.27543     -2765.388       1694.799       2509.6671      12.263562    
   3645000   297.4659      -2738.8745      1732.5524      2540.4353      4.2952769    
   3650000   298.33817     -2735.0106      1678.0489      2500.196       3.4546563    
   3655000   295.928       -2755.266       1689.7348      2462.8894      7.7830502    
   3660000   303.4177      -2723.545       1707.3861      2601.5632     -0.33109064   
   3665000   298.34411     -2737.783       1674.7015      2494.147      -10.974638    
   3670000   300.32821     -2758.1257      1690.7268      2513.4865      16.071521    
   3675000   297.39388     -2717.2103      1683.1913      2511.8797      8.9538641    
   3680000   291.7915      -2785.993       1704.1719      2397.279      -23.103151    
   3685000   305.46112     -2813.3548      1695.8968      2524.6283     -1.4745181    
   3690000   302.4526      -2795.7732      1707.5291      2517.971      -7.3469912    
   3695000   299.94492     -2799.6903      1721.8343      2498.4593      19.834602    
   3700000   299.02273     -2811.6978      1706.1007      2459.7228      13.149039    
   3705000   293.99224     -2810.0882      1689.2062      2384.4581      16.697648    
   3710000   297.59579     -2823.11        1734.3719      2459.568       6.8072633    
   3715000   299.93447     -2757.6845      1693.9858      2512.4921      33.009886    
   3720000   300.57162     -2788.694       1701.1934      2496.287       56.803984    
   3725000   306.26531     -2746.8729      1659.3933      2564.1953      17.89344     
   3730000   295.97116     -2771.2144      1648.5931      2406.314      -5.2552831    
   3735000   304.27511     -2799.5434      1722.4994      2550.9012      6.5923464    
   3740000   298.9569      -2751.8186      1666.4555      2479.1717      18.184938    
   3745000   295.43916     -2784.7849      1691.1131      2428.9203     -14.701438    
   3750000   297.63753     -2799.3765      1670.3944      2419.8216      1.5636163    
   3755000   296.81593     -2769.0486      1670.2564      2440.2154     -9.1171187    
   3760000   305.30498     -2793.3742      1701.1535      2548.0038      5.5698237    
   3765000   297.71495     -2783.0968      1700.2565      2466.8865      10.040822    
   3770000   300.41617     -2766.217       1730.1129      2545.8301      16.558699    
   3775000   296.39894     -2771.6807      1669.632       2431.9871      6.1102116    
   3780000   300.83106     -2811.6658      1689.7379      2464.9531      12.871298    
   3785000   303.40485     -2804.7871      1690.189       2502.9707      4.0954559    
   3790000   296.36973     -2798.5947      1648.6603      2383.7531      16.494279    
   3795000   297.70618     -2852.0069      1684.4031      2382.0186      22.34217     
   3800000   299.76939     -2811.4016      1688.019       2450.8399     -1.6165016    
   3805000   296.32342     -2788.3096      1729.3282      2474.1539      6.5576845    
   3810000   299.53779     -2797.1313      1742.9029      2517.2326      16.523644    
   3815000   306.69349     -2785.8688      1712.6571      2583.5685      36.074693    
   3820000   299.32406     -2806.6332      1655.7022      2417.9817      1.0148032    
   3825000   295.92179     -2796.4347      1708.4304      2440.3423      15.668911    
   3830000   307.13044     -2803.1174      1635.1294      2494.002      -12.844399    
   3835000   303.97165     -2788.668       1658.3715      2494.0305     -6.0371121    
   3840000   297.72397     -2788.6867      1716.024       2477.1717      13.381704    
   3845000   303.12477     -2777.0035      1637.6532      2474.8791      8.8827071    
   3850000   297.67214     -2787.8798      1627.693       2389.0296      12.844902    
   3855000   298.53888     -2771.3433      1640.5377      2428.7452     -16.488648    
   3860000   301.08608     -2813.9775      1724.6842      2500.6284     -8.7708253    
   3865000   298.17107     -2822.4797      1659.6665      2392.352       35.262232    
   3870000   299.96897     -2825.2934      1701.2472      2452.5559     -2.5319742    
   3875000   301.06487     -2815.1298      1742.8315      2517.3706      3.024594     
   3880000   298.09012     -2820.9479      1691.3026      2424.5548      3.2166446    
   3885000   305.81737     -2812.3952      1655.8911      2489.8298      15.256879    
   3890000   294.52254     -2831.9073      1698.3124      2378.068       3.1884489    
   3895000   301.88793     -2825.6071      1662.3292      2436.2044      35.64932     
   3900000   304.97941     -2825.9135      1740.5307      2550.96        7.9473593    
   3905000   304.84303     -2796.9786      1708.5996      2546.3378     -3.2746041    
   3910000   303.10555     -2818.551       1726.9095      2522.3588      13.316431    
   3915000   297.19847     -2822.6682      1654.0677      2374.9682      3.5901611    
   3920000   288.20486     -2843.8534      1685.2011      2277.6834      25.36371     
   3925000   295.69318     -2823.1049      1690.6663      2393.1822      4.4944909    
   3930000   290.77697     -2840.6896      1703.8794      2330.1936     -4.9551589    
   3935000   298.4413      -2846.2385      1748.9749      2461.1237      5.5956782    
   3940000   300.20938     -2847.1752      1741.3904      2473.6837      17.34449     
   3945000   298.57493     -2872.131       1648.3715      2336.2211      10.005925    
   3950000   303.58173     -2865.5215      1685.9717      2440.128       2.652394     
   3955000   295.09948     -2847.8237      1675.4784      2346.1967     -2.2929396    
   3960000   294.21044     -2824.61        1670.8742      2354.206      -14.495447    
   3965000   305.15085     -2832.5314      1671.9921      2477.8477      12.004047    
   3970000   297.77092     -2830.1239      1762.7412      2483.0115     -10.43578     
   3975000   298.27188     -2826.8957      1689.5647      2419.0363      4.1990767    
   3980000   294.0056      -2794.3906      1674.9057      2386.0145      23.170957    
   3985000   302.16952     -2836.711       1678.3928      2444.5215      8.7498888    
   3990000   299.98967     -2840.843       1658.9277      2394.9336     -9.1643235    
   3995000   300.94869     -2847.9005      1669.0349      2409.4179      11.239897    
   4000000   299.69548     -2824.3142      1638.4911      2387.518       24.099246    
   4005000   298.44709     -2804.3151      1682.1662      2436.3075      14.639646    
   4010000   299.43737     -2819.1875      1718.8634      2469.9396     -7.2279615    
   4015000   305.09056     -2778.1066      1680.4166      2539.978      -8.1906303    
   4020000   303.75376     -2766.7322      1684.7128      2539.7096      0.016116443  
   4025000   295.30251     -2747.1076      1670.2763      2444.1314     -4.8550734    
   4030000   303.29229     -2753.0561      1717.2451      2580.4158      17.810413    
   4035000   299.84946     -2762.7686      1665.4629      2477.8714      14.685136    
   4040000   305.26667     -2720.7562      1740.1988      2659.2104     -24.984763    
   4045000   297.33028     -2725.4213      1711.5182      2531.2373      24.844863    
   4050000   302.20584     -2767.5134      1658.4289      2494.1884     -1.3498485    
   4055000   295.66255     -2743.0891      1686.1504      2468.3169      7.5689113    
   4060000   296.82201     -2747.55        1701.1343      2492.6644     -0.1583429    
   4065000   299.12927     -2742.8339      1698.9812      2522.7375      9.0763061    
   4070000   307.01348     -2734.3638      1678.7621      2604.9938      6.9467939    
   4075000   297.81766     -2773.2969      1735.3676      2513.0222     -4.4672718    
   4080000   300.22103     -2753.7234      1728.2128      2554.0969      6.5295786    
   4085000   306.34839     -2751.3175      1653.8958      2555.2438      15.644744    
   4090000   294.76853     -2773.8321      1709.6592      2450.4231      10.134463    
   4095000   297.15685     -2748.9824      1714.4723      2508.5625     -3.9783146    
   4100000   298.55537     -2749.0451      1650.7094      2461.4117     -8.3042069    
   4105000   302.22418     -2750.0928      1664.5761      2517.9748      12.702842    
   4110000   301.04522     -2771.9118      1673.711       2491.2337      7.9241281    
   4115000   302.24868     -2785.5109      1665.1247      2483.3975      21.223638    
   4120000   299.55506     -2772.4531      1681.7557      2480.9695     -8.7649915    
   4125000   298.1465      -2773.3481      1705.0159      2486.5401     -5.4544777    
   4130000   298.2182      -2758.3087      1702.8206      2500.2392      29.807811    
   4135000   297.22194     -2745.6691      1694.6712      2492.8508      5.7929393    
   4140000   302.24811     -2757.3342      1700.2816      2546.7242     -19.557929    
   4145000   297.4211      -2768.0981      1681.9568      2460.0819      10.627507    
   4150000   304.2233      -2761.0664      1704.2215      2570.4826      8.5395228    
   4155000   304.08469     -2809.7971      1650.3         2466.1778      26.045798    
   4160000   302.26166     -2767.352       1657.2856      2493.8719      9.9173993    
   4165000   299.33454     -2804.5537      1740.6714      2505.1554      4.4048823    
   4170000   298.53191     -2810.2721      1666.3231      2415.5187      3.0743439    
   4175000   309.43128     -2800.5226      1649.4305      2538.3313      4.2814643    
   4180000   299.00919     -2855.8409      1679.8519      2389.1693     -10.417381    
   4185000   293.16105     -2857.8189      1695.26        2332.8707      31.543752    
   4190000   297.13645     -2832.3464      1699.6181      2410.101       4.6075215    
   4195000   294.87945     -2813.4547      1671.0641      2373.5279      13.387397    
   4200000   295.93032     -2829.9001      1626.3007      2324.849       19.254033    
   4205000   299.14423     -2816.08        1697.4519      2448.1404     -4.4639064    
   4210000   298.37474     -2816.4127      1701.6929      2442.8739     -10.04772     
   4215000   303.88178     -2806.7007      1685.4579      2502.0126     -9.6598889    
   4220000   294.82122     -2822.8358      1716.8643      2409.2528     -7.3231149    
   4225000   290.02865     -2807.8157      1707.0117      2357.2773      1.0126029    
   4230000   299.03177     -2797.4652      1697.9853      2465.9477     -2.8316214    
   4235000   296.45958     -2806.7153      1690.705       2418.7485      24.915721    
   4240000   300.91572     -2805.9788      1691.9744      2473.886       20.430198    
   4245000   297.45439     -2804.9467      1752.619       2494.2923     -0.11890568   
   4250000   297.8387      -2812.6684      1651.9977      2390.5317      16.10845     
   4255000   304.28324     -2789.6571      1739.9918      2578.3769      9.2190975    
   4260000   295.48577     -2828.5683      1625.7127      2320.2923     -5.9513412    
   4265000   292.86751     -2813.9177      1669.9516      2347.9636      0.89064462   
   4270000   297.07049     -2830.9269      1701.4406      2412.5565     -9.3890111    
   4275000   295.19969     -2815.2198      1736.8348      2441.3518     -16.642482    
   4280000   295.21223     -2804.8017      1660.8292      2375.9138     -30.376464    
   4285000   304.669       -2833.2557      1740.4812      2539.8671      12.406408    
   4290000   298.53501     -2792.9693      1712.1821      2478.7175      21.137171    
   4295000   298.45157     -2779.7123      1668.5576      2447.355       14.279247    
   4300000   304.86819     -2802.1887      1663.9269      2496.7549     -1.2535071    
   4305000   303.11201     -2799.8375      1669.0456      2483.2853      20.303465    
   4310000   299.54766     -2811.3166      1678.5748      2438.8369     -9.8911467    
   4315000   298.86238     -2793.1565      1760.9732      2531.2247      17.507647    
   4320000   300.31239     -2755.3032      1690.4116      2515.8052      17.057066    
   4325000   312.52172     -2752.2868      1659.0039      2632.9885      21.236961    
   4330000   298.14177     -2735.0222      1690.2563      2510.0501     -4.923629     
   4335000   301.13931     -2746.5097      1704.0018      2548.0484      6.3463777    
   4340000   300.46798     -2724.5316      1683.334       2541.3542     -5.7555103    
   4345000   297.38392     -2721.9378      1735.07        2558.9121     -3.7286615    
   4350000   303.93696     -2728.4683      1691.0325      2586.4775     -0.12145291   
   4355000   298.86539     -2698.9868      1655.722       2520.179       13.710121    
   4360000   300.64144     -2704.879       1677.5872      2557.3284     -6.4763352    
   4365000   295.22386     -2706.0621      1690.6279      2504.5907      13.863128    
   4370000   294.75567     -2740.9566      1661.4913      2434.9773     -9.4511348    
   4375000   303.53795     -2735.5726      1704.0577      2587.641      -6.1779247    
   4380000   295.31382     -2766.8406      1737.8541      2492.1111      3.4251499    
   4385000   301.30933     -2730.3263      1660.7526      2523.0097      10.722174    
   4390000   308.39985     -2763.6239      1715.012       2628.5136      31.652403    
   4395000   298.36353     -2739.6191      1701.6961      2519.537       3.3101961    
   4400000   305.47444     -2745.7544      1693.7757      2590.2665      14.677961    
   4405000   294.30362     -2780.2149      1676.9557      2405.7935      3.6262885    
   4410000   301.49183     -2768.9053      1646.3872      2472.2415      10.361669    
   4415000   305.94456     -2736.965       1693.8553      2604.7407      24.988089    
   4420000   302.50434     -2734.9711      1697.0145      2568.8752     -4.1378278    
   4425000   299.82135     -2752.9683      1621.7223      2443.596       26.055873    
   4430000   299.34081     -2713.164       1681.1966      2537.1451      18.641575    
   4435000   305.90641     -2707.0178      1664.0733      2604.4512      20.347479    
   4440000   299.16745     -2726.9007      1729.5366      2569.6813      24.662424    
   4445000   299.69836     -2700.0893      1691.9597      2565.2459      0.81322852   
   4450000   296.89188     -2727.8043      1724.2131      2536.322       11.93143     
   4455000   306.83158     -2714.7787      1662.5089      2606.1569      7.7562791    
   4460000   301.02533     -2728.4383      1665.835       2526.594       15.465989    
   4465000   299.7764      -2757.32        1632.287       2449.2729      43.343767    
   4470000   295.75843     -2766.0633      1651.8527      2412.1883      2.9844701    
   4475000   301.18304     -2777.78        1668.1077      2481.4055      2.1774796    
   4480000   306.32291     -2751.6889      1733.3208      2633.9935     -5.229993     
   4485000   297.23971     -2746.1779      1660.4255      2458.308      -6.5837287    
   4490000   297.88643     -2729.9041      1703.6848      2525.5522     -5.1619385    
   4495000   297.65149     -2752.3365      1694.6501      2491.2838      3.1816179    
   4500000   299.85937     -2699.0104      1735.1762      2611.4611      6.6330193    
   4505000   296.83268     -2729.3589      1695.0509      2504.8993      37.9181      
   4510000   301.03672     -2723.6251      1711.4084      2577.1164      4.7477245    
   4515000   300.32389     -2747.0503      1704.9609      2538.7445      16.682508    
   4520000   292.37733     -2736.9288      1670.0396      2419.1959     -6.4971532    
   4525000   298.8463      -2715.035       1647.5887      2495.7698      20.768208    
   4530000   299.96144     -2755.281       1722.1099      2543.3412      5.0441565    
   4535000   296.17672     -2759.1592      1723.7738      2496.0008      0.35838635   
   4540000   302.05346     -2751.9858      1714.6419      2564.112      -3.098858     
   4545000   299.50446     -2772.0486      1682.1029      2481.118      -7.9278765    
   4550000   304.0401      -2762.8017      1717.4732      2579.8147      19.786792    
   4555000   304.0615      -2758.09        1673.1962      2540.5045      10.991381    
   4560000   305.33576     -2755.5656      1651.3785      2536.4045      21.525837    
   4565000   302.56664     -2751.7674      1736.8381      2592.6454      17.941022    
   4570000   301.97712     -2772.3814      1706.6296      2534.7939      8.9584476    
   4575000   300.15675     -2726.489       1687.6453      2539.9973     -23.938815    
   4580000   297.11956     -2747.6202      1639.3178      2434.3255      6.6614511    
   4585000   300.50178     -2762.3012      1687.4475      2508.1012      10.158798    
   4590000   305.42276     -2753.6269      1693.8766      2581.8787      7.0759883    
   4595000   294.08251     -2764.2361      1709.5511      2451.7313     -0.33987144   
   4600000   305.24063     -2718.9164      1661.7686      2582.3096     -11.695787    
   4605000   302.11724     -2735.2841      1705.6509      2572.5833      10.015424    
   4610000   297.82941     -2759.9336      1647.7076      2438.8656     -7.2474802    
   4615000   298.05491     -2752.3727      1718.386       2519.7935      6.8408216    
   4620000   307.84353     -2743.633       1645.3197      2572.179       6.909762     
   4625000   300.87182     -2760.64        1657.2244      2483.9514      22.226396    
   4630000   299.69061     -2767.9952      1671.275       2476.563       3.2717482    
   4635000   301.60004     -2765.8052      1738.7984      2569.043      -14.376512    
   4640000   296.04631     -2752.0858      1701.1883      2478.9338      10.291685    
   4645000   301.47256     -2728.4971      1702.5095      2568.5422      1.7006061    
   4650000   307.61227     -2744.8289      1653.5098      2576.4159      18.945417    
   4655000   308.5967      -2744.4909      1717.7193      2652.701       11.91309     
   4660000   298.31123     -2733.7433      1719.1624      2542.2556      12.68698     
   4665000   293.96467     -2704.7809      1683.5933      2483.8237      5.5154627    
   4670000   297.03717     -2711.4308      1656.0261      2486.2408      14.685501    
   4675000   302.0879      -2739.3531      1713.3864      2575.8999      2.1051049    
   4680000   299.23607     -2726.704       1690.4662      2531.6258      0.33442877   
   4685000   302.51239     -2760.5953      1674.9307      2521.2632     -12.620302    
   4690000   301.26974     -2725.6506      1687.9456      2554.4065      16.31493     
   4695000   295.6154      -2754.3964      1661.9339      2432.231      -0.38233342   
   4700000   295.75367     -2765.7303      1635.3273      2395.9392      10.534302    
   4705000   301.12404     -2780.5883      1734.5388      2544.3248     -7.2961149    
   4710000   294.30632     -2791.848       1673.1338      2390.3708      0.86687223   
   4715000   291.0302      -2800.2027      1679.7789      2349.5992      17.557575    
   4720000   299.22874     -2795.8958      1654.1488      2426.0293      37.559586    
   4725000   293.2967      -2804.6351      1686.4387      2378.8507      21.016613    
   4730000   300.3683      -2764.4065      1656.0568      2473.0137     -8.3205465    
   4735000   304.03422     -2774.6777      1645.2109      2495.6062     -9.9671963    
   4740000   294.5603      -2781.0801      1693.6365      2424.6696      8.8281352    
   4745000   296.94201     -2749.7346      1626.976       2417.7522      8.3157125    
   4750000   296.08806     -2772.5782      1680.6956      2438.4464      13.17274     
   4755000   301.66369     -2768.6764      1704.1308      2532.2631      8.1711813    
   4760000   298.07366     -2748.9683      1655.9178      2460.9534      0.277508     
   4765000   304.34105     -2804.9604      1649.1868      2472.9578      7.4960572    
   4770000   303.00871     -2802.3499      1704.8395      2515.3353      8.3319059    
   4775000   302.88999     -2810.6687      1678.2348      2478.9962      19.399607    
   4780000   294.45808     -2776.33        1670.7052      2405.2696     -0.90619254   
   4785000   301.9319      -2805.2864      1727.7163      2522.4366      12.716585    
   4790000   301.94452     -2768.9628      1650.0696      2481.2637      17.546868    
   4795000   299.60251     -2811.5906      1689.4515      2450.0936     -5.1961253    
   4800000   295.09869     -2837.442       1733.7198      2414.8103      7.6053099    
   4805000   299.80355     -2836.1607      1647.6123      2386.0814      11.8309      
   4810000   305.09603     -2816.5493      1675.8621      2497.046       21.149946    
   4815000   300.7618      -2793.7435      1674.1482      2466.4598     -6.615691     
   4820000   302.60827     -2761.1254      1687.9652      2534.9108      4.1244103    
   4825000   298.68745     -2745.5045      1732.039       2547.8568      30.962442    
   4830000   301.87266     -2761.6423      1715.367       2553.0249      13.648392    
   4835000   299.01183     -2761.1702      1670.9896      2475.0094     -0.92552163   
   4840000   300.52103     -2756.405       1651.6042      2478.3837      14.727362    
   4845000   302.56213     -2738.9999      1710.1271      2578.648       4.6156842    
   4850000   304.55456     -2773.2635      1679.8851      2537.8987     -0.10173015   
   4855000   302.42907     -2741.2948      1659.6992      2524.3388      4.0276808    
   4860000   303.5426      -2773.5252      1757.1301      2602.8163      16.125415    
   4865000   299.57412     -2763.8025      1652.6012      2460.6929      15.476731    
   4870000   301.50634     -2765.763       1705.5738      2534.7433      18.35826     
   4875000   300.12071     -2760.6263      1707.3042      2525.0892      4.8313572    
   4880000   299.23598     -2739.7962      1672.698       2500.7642      16.086002    
   4885000   297.76733     -2801.7172      1697.1289      2445.7632     -14.292315    
   4890000   302.98737     -2804.8399      1668.7646      2476.5158     -3.2766866    
   4895000   297.80043     -2757.0726      1636.1065      2429.78        25.579578    
   4900000   299.59107     -2731.2619      1684.0132      2524.8476     -13.661477    
   4905000   297.73089     -2723.5211      1663.7994      2490.1953      0.061817192  
   4910000   305.09672     -2734.8948      1690.7462      2593.5929     -4.932244     
   4915000   306.36155     -2773.1931      1669.1356      2548.765       25.028017    
   4920000   302.14341     -2762.8239      1714.9674      2554.6719      20.960735    
   4925000   302.30003     -2790.5706      1690.7516      2504.5769      25.436606    
   4930000   299.46851     -2764.6813      1726.9929      2532.9466      11.676726    
   4935000   299.51598     -2778.6266      1703.7904      2496.3648     -25.311502    
   4940000   296.83319     -2795.971       1682.6634      2425.9058      14.853475    
   4945000   294.93089     -2822.6082      1699           2392.9237      25.762227    
   4950000   304.40492     -2787.7525      1654.2173      2495.9578      17.045647    
   4955000   298.41571     -2811.3914      1690.5767      2437.2675      32.081587    
   4960000   304.77031     -2792.0355      1699.8292      2541.6433      4.013591     
   4965000   301.58721     -2803.7761      1679.2012      2471.3219      13.491566    
   4970000   307.89926     -2812.8281      1742.2459      2600.5746      16.934969    
   4975000   303.11843     -2756.0736      1678.1949      2536.2752      6.2198477    
   4980000   289.19512     -2758.5213      1661.5581      2351.1797      5.6642917    
   4985000   298.93261     -2783.4255      1695.242       2476.0618      0.1975915    
   4990000   295.48234     -2792.4551      1666.6138      2397.2655      6.9248958    
   4995000   291.61975     -2843.7748      1587.0467      2220.3243      12.657518    
   5000000   295.26579     -2793.3339      1646.5663      2373.7573      2.6281675    
   5005000   297.21287     -2790.2567      1675.2989      2428.7827      9.9037307    
   5010000   305.11188     -2766.8682      1678.1366      2549.1905      23.463836    
   5015000   299.73565     -2796.2736      1652.2809      2429.8275      5.5120402    
   5020000   302.68423     -2762.1533      1759.8079      2606.6313      7.0221042    
   5025000   296.53548     -2789.4151      1680.7295      2426.9782      10.762155    
   5030000   304.52175     -2805.9694      1776.4425      2601.359      -1.6404444    
   5035000   300.80707     -2778.4023      1751.8035      2559.9961      31.41299     
   5040000   300.23522     -2811.1563      1721.208       2489.8284      6.629747     
   5045000   295.49274     -2801.807       1710.9455      2432.3695     -0.62574932   
   5050000   295.61161     -2786.8977      1647.1426      2384.8932      3.5526015    
   5055000   299.17815     -2791.772       1651.1571      2426.558       17.290832    
   5060000   304.43258     -2783.3563      1720.4402      2566.9068      31.43406     
   5065000   303.32238     -2786.7076      1702.6913      2532.5694     -9.7576331    
   5070000   303.21687     -2780.0564      1669.0573      2504.3285     -3.0865189    
   5075000   307.43483     -2783.7588      1673.2183      2555.0789     -5.8616564    
   5080000   307.17258     -2749.2092      1691.1351      2604.4184      11.76864     
   5085000   301.11861     -2757.3213      1675.4781      2508.4663      14.593272    
   5090000   303.8327      -2753.5809      1703.57        2572.6593      21.508094    
   5095000   303.48671     -2681.7571      1695.2949      2632.0826      5.2651815    
   5100000   300.76859     -2701.8788      1713.419       2597.6764     -6.0154627    
   5105000   299.17617     -2688.0158      1635.7315      2514.865       5.4915335    
   5110000   300.56814     -2704.0526      1716.7945      2596.4881      29.523004    
   5115000   300.09323     -2721.8394      1710.9616      2567.2059      11.654848    
   5120000   296.37049     -2703.3984      1753.5914      2583.8896      23.316729    
   5125000   297.09258     -2695.3027      1701.4263      2548.4298      13.362804    
   5130000   304.62161     -2750.0924      1660.9471      2542.9313      6.5396729    
   5135000   297.78476     -2736.1065      1725.406       2539.8588     -17.797204    
   5140000   306.79793     -2722.623       1735.158       2670.5604      15.316567    
   5145000   295.53103     -2748.6486      1696.7139      2471.7528     -5.5736839    
   5150000   301.21188     -2752.7829      1650.2477      2488.8863     -3.6148268    
   5155000   304.58179     -2718.2474      1695.9359      2609.2904      35.226829    
   5160000   296.95452     -2737.2096      1668.3161      2471.7666     -5.6966577    
   5165000   300.75558     -2744.5959      1703.9122      2545.2974      8.4031248    
   5170000   302.64866     -2779.0946      1697.4484      2526.9065     -0.63293425   
   5175000   298.34962     -2739.3979      1697.8642      2515.7605      29.135824    
   5180000   297.43533     -2793.4391      1698.3706      2451.3243      4.0637578    
   5185000   293.42863     -2775.9501      1697.1915      2419.8615      12.559047    
   5190000   298.51291     -2755.4232      1719.5264      2523.3443      24.884194    
   5195000   301.6991      -2771.8809      1704.8633      2530.2133     -31.700313    
   5200000   299.01794     -2793.4728      1725.7208      2497.5106      9.5291244    
   5205000   298.55506     -2781.3889      1714.083       2492.4379      9.6197954    
   5210000   300.86693     -2756.6876      1704.0982      2534.7194     -27.501389    
   5215000   291.24055     -2773.5307      1613.6504      2312.6508      9.7754212    
   5220000   301.35551     -2773.1406      1630.9627      2450.9562      22.158377    
   5225000   301.39384     -2799.1919      1740.5225      2534.9218     -10.788363    
   5230000   305.04018     -2800.0354      1747.6245      2584.6564     -7.8133993    
   5235000   302.45986     -2783.9943      1701.5507      2523.8579     -2.1178457    
   5240000   301.45579     -2800.4218      1700.4614      2494.3694      31.822115    
   5245000   293.74671     -2801.5505      1723.1293      2423.9914      7.8153929    
   5250000   308.46663     -2785.2832      1670.2189      2562.8573      2.7234234    
   5255000   295.39493     -2730.8295      1706.0247      2497.2599      0.036935375  
   5260000   298.90046     -2757.5409      1663.1272      2469.4484     -0.68043845   
   5265000   299.58416     -2761.9559      1691.6625      2501.7206      22.759906    
   5270000   298.66698     -2735.617       1754.5635      2580.0246      24.926637    
   5275000   304.01713     -2749.972       1731.2772      2606.1746      30.495985    
   5280000   301.24936     -2712.9629      1664.3123      2543.2179      27.085074    
   5285000   301.10033     -2721.8755      1728.7483      2596.9644      9.7845776    
   5290000   302.67339     -2756.4641      1723.151       2575.5344      11.213289    
   5295000   305.24819     -2727.3416      1701.9733      2614.1791      1.4285761    
   5300000   295.90295     -2740.8504      1661.9232      2449.1948      13.507061    
   5305000   297.96929     -2716.8175      1717.9616      2553.9036      15.23513     
   5310000   303.73161     -2737.6291      1701.5295      2585.3652     -17.892074    
   5315000   296.58083     -2731.4084      1685.8029      2490.5989      1.1353367    
   5320000   300.65828     -2743.188       1711.2753      2552.9082      28.176339    
   5325000   300.53048     -2759.6873      1709.8182      2533.428       10.909103    
   5330000   304.61724     -2720.938       1648.0114      2559.0979      20.942569    
   5335000   298.67849     -2732.5625      1687.4189      2516.0719      22.754979    
   5340000   305.1169      -2769.3198      1682.0647      2550.727       7.2468921    
   5345000   296.87048     -2718.0493      1714.2191      2535.8279      2.0966911    
   5350000   299.24226     -2744.152       1682.8926      2506.678       10.495405    
   5355000   305.32311     -2697.7396      1724.558       2667.2591      14.823391    
   5360000   300.52173     -2682.7062      1693.8501      2594.3367      1.7010157    
   5365000   305.09138     -2720.7018      1739.6301      2656.6061      9.5985193    
   5370000   302.72318     -2720.5916      1724.1807      2613.0302      0.46812233   
   5375000   298.55054     -2702.258       1689.9361      2547.3678      6.7954177    
   5380000   298.88953     -2710.7154      1652.9339      2505.9501      14.650319    
   5385000   303.39302     -2741.0934      1727.4662      2603.8006      34.748329    
   5390000   305.20038     -2685.7544      1626.139       2579.362       4.116921     
   5395000   299.38526     -2703.6106      1711.3324      2577.3641      10.147032    
   5400000   301.727       -2749.2565      1720.2747      2568.5817     -3.4635964    
   5405000   300.53409     -2762.6767      1730.7991      2551.4625      1.2552966    
   5410000   301.56826     -2737.9201      1727.616       2585.3666     -6.7586496    
   5415000   303.45319     -2753.0124      1659.7172      2524.8501      2.2692049    
   5420000   304.00212     -2762.4228      1719.8133      2582.0807     -1.7432992    
   5425000   299.51968     -2765.634       1761.7953      2567.4065      22.198583    
   5430000   298.29618     -2743.5537      1710.745       2523.8483      3.1876912    
   5435000   303.2869      -2783.0636      1604.7195      2437.8184      11.28665     
   5440000   296.60171     -2745.9259      1697.1018      2487.6293      8.3005315    
   5445000   302.84673     -2746.4263      1691.5407      2556.0287      19.368037    
   5450000   295.61914     -2782.2082      1645.3941      2387.9239      22.813595    
   5455000   301.92179     -2748.2587      1676.1353      2527.7627      4.3640842    
   5460000   303.08201     -2785.109       1675.9761      2504.5867      31.146183    
   5465000   301.04864     -2801.263       1664.0604      2452.2726      21.112645    
   5470000   301.99487     -2814.3812      1658.3933      2444.7693     -1.2565961    
   5475000   295.66297     -2810.4945      1760.7711      2475.5373      7.6926345    
   5480000   300.10786     -2788.3682      1687.2698      2477.1597     -19.973053    
   5485000   298.46513     -2765.3737      1665.159       2458.4567     -0.51326057   
   5490000   297.84518     -2779.5192      1633.0255      2404.7859      2.4440776    
   5495000   298.41163     -2828.3489      1764.1802      2493.8649     -10.292623    
   5500000   297.17271     -2788.1997      1691.1533      2446.2151     -4.7881454    
   5505000   300.10246     -2810.5906      1658.1399      2425.7431     -6.6929432    
   5510000   297.0736      -2790.3428      1690.5742      2442.3114      26.279434    
   5515000   293.56132     -2759.3629      1654.4739      2395.3131      10.240203    
   5520000   294.62856     -2800.2919      1680.0173      2392.6526      10.122182    
   5525000   299.43263     -2803.2789      1665.959       2432.8873     -7.3104787    
   5530000   302.8739      -2797.1456      1703.4672      2517.5599     -19.635786    
   5535000   300.90962     -2808.9977      1696.1693      2474.9892      25.630983    
   5540000   300.09146     -2795.1365      1667.8387      2450.7648      26.317482    
   5545000   298.40279     -2832.3831      1752.7855      2478.3306      2.8158769    
   5550000   293.351       -2822.9902      1663.1675      2337.8717      2.0031123    
   5555000   298.33064     -2825.6406      1672.6928      2404.1201      2.4293084    
   5560000   296.92937     -2807.8876      1682.9638      2415.4364      1.3147301    
   5565000   300.73506     -2774.6743      1749.4529      2560.5149     -1.5195035    
   5570000   305.52112     -2791.9104      1789.4086      2640.2999      12.847756    
   5575000   296.05179     -2803.184       1645.7753      2372.4879     -1.8707919    
   5580000   304.1603      -2802.8544      1632.1115      2455.8335      17.219733    
   5585000   297.06974     -2798.9023      1687.4209      2430.5526      4.521115     
   5590000   295.84785     -2804.3793      1693.2298      2416.3154      34.133087    
   5595000   300.28453     -2823.976       1651.6456      2408.0341      12.734049    
   5600000   298.18405     -2804.811       1707.4306      2457.9397      1.8425921    
   5605000   302.51161     -2797.4753      1688.3594      2497.8026     -13.215204    
   5610000   304.9527      -2804.5127      1694.8999      2526.4114      15.017806    
   5615000   301.95914     -2799.9283      1633.7774      2434.1804      7.4214154    
   5620000   296.15988     -2772.1211      1716.7841      2475.8484      4.6763947    
   5625000   299.21341     -2768.4842      1695.9373      2495.0465      1.0114962    
   5630000   299.3789      -2717.9718      1691.6996      2543.2944      2.1018192    
   5635000   301.84448     -2720.7004      1719.5246      2597.7883     -3.7310527    
   5640000   302.28191     -2724.5257      1730.798       2610.4522      28.373018    
   5645000   292.34896     -2752.8228      1606.7275      2339.6517      34.824241    
   5650000   291.87518     -2751.5931      1675.4299      2403.9348     -7.6899207    
   5655000   291.7232      -2754.8104      1756.3274      2479.8028     -1.5256774    
   5660000   301.64176     -2736.989       1683.385       2542.9431      30.916987    
   5665000   309.25779     -2782.9012      1702.6565      2607.1103      6.3640232    
   5670000   298.27664     -2722.2053      1681.2675      2515.4862     -15.095157    
   5675000   303.26343     -2741.8238      1674.9119      2548.9708      16.594225    
   5680000   297.93868     -2773.4683      1673.0214      2451.9476      8.724248     
   5685000   296.15194     -2764.8997      1659.2299      2425.421       23.511019    
   5690000   298.51635     -2758.0169      1622.8672      2424.1325     -9.3990663    
   5695000   306.35027     -2758.1611      1633.8901      2528.4169      0.46914506   
   5700000   301.20426     -2786.5851      1687.6866      2492.4322      12.452715    
   5705000   303.67604     -2797.821       1676.9842      2499.9656      9.3136794    
   5710000   298.03202     -2789.1946      1663.6652      2427.978       4.1251787    
   5715000   301.98637     -2787.3768      1724.6527      2537.9319      0.093800269  
   5720000   300.28326     -2766.8527      1706.3294      2519.8261      21.925553    
   5725000   297.56665     -2797.8506      1685.9714      2436.0794      10.359858    
   5730000   303.80757     -2758.5091      1695.904       2559.7655      25.6805      
   5735000   300.7595      -2767.3007      1718.5219      2537.249       21.563663    
   5740000   307.75105     -2747.4992      1697.4096      2619.3001      2.3295207    
   5745000   302.20512     -2740.9574      1676.4041      2538.7109      30.789249    
   5750000   301.39542     -2737.6738      1725.2729      2581.2091     -6.8044555    
   5755000   299.20867     -2754.3221      1731.3273      2544.542       1.373807     
   5760000   294.53203     -2726.7345      1705.4008      2490.4424      4.7033322    
   5765000   308.67525     -2729.1812      1752.4414      2703.6693      6.5900403    
   5770000   297.90364     -2752.2997      1681.7247      2481.4016      6.0924323    
   5775000   295.98542     -2733.449       1681.6998      2477.3561      22.28313     
   5780000   295.00774     -2727.7773      1735.5693      2525.2402      10.722891    
   5785000   300.39095     -2753.8021      1714.4333      2542.2646      6.3389826    
   5790000   304.87937     -2767.87        1721.1253      2588.4053      1.847264     
   5795000   301.92792     -2754.2612      1666.0057      2511.7036     -1.1533858    
   5800000   301.91663     -2766.2711      1676.336       2509.8895     -11.496405    
   5805000   292.29114     -2746.5602      1667.0016      2405.4989      11.782427    
   5810000   299.07661     -2741.957       1675.872       2499.8773      0.34564646   
   5815000   298.5735      -2732.3563      1673.2488      2500.8561      10.401477    
   5820000   293.27064     -2751.3411      1793.0623      2538.4574     -21.344251    
   5825000   298.80218     -2762.2862      1710.7324      2511.1364      9.876502     
   5830000   300.70594     -2734.1832      1720.7992      2572.0052     -11.604544    
   5835000   299.81097     -2747.3303      1683.4462      2510.8341     -10.426741    
   5840000   292.87563     -2731.2848      1729.6197      2490.3615      14.835704    
   5845000   303.06703     -2777.3027      1727.3447      2563.5829      13.022838    
   5850000   300.31537     -2791.1051      1704.473       2494.1002      9.4531874    
   5855000   304.72953     -2794.0879      1667.9228      2507.1983     -2.953394     
   5860000   299.79138     -2796.2191      1667.0846      2445.3502      23.111382    
   5865000   299.60793     -2825.499       1718.8074      2465.6057      17.990947    
   5870000   305.21353     -2778.3016      1713.9855      2574.8182      21.570215    
   5875000   301.69212     -2829.2521      1685.8325      2453.728      -12.04467     
   5880000   296.44889     -2805.3017      1690.8468      2420.1765     -6.9832657    
   5885000   297.63397     -2796.2724      1643.122       2395.6109      14.817203    
   5890000   307.85738     -2851.1477      1705.5834      2525.0932      5.1994811    
   5895000   296.06774     -2836.7046      1637.496       2330.8782      21.224315    
   5900000   292.14304     -2832.7284      1697.3421      2347.9054      5.4617221    
   5905000   308.12348     -2854.5761      1670.1938      2489.4479      32.188183    
   5910000   303.34634     -2838.4925      1692.4172      2470.7959      14.641453    
   5915000   303.99211     -2827.7277      1638.6368      2435.4801     -0.86673798   
   5920000   299.52818     -2821.4395      1705.0919      2454.9989      18.781104    
   5925000   296.08957     -2822.6561      1695.9065      2403.5974     -21.529974    
   5930000   297.43825     -2819.8187      1653.2515      2379.8605      8.6189678    
   5935000   300.51104     -2855.308       1691.7512      2419.5084     -4.9891834    
   5940000   303.46854     -2883.5496      1729.5911      2464.3698      33.802019    
   5945000   298.69675     -2820.9157      1662.1889      2402.7064      6.748723     
   5950000   295.77442     -2865.0664      1700.7803      2362.3034      12.148331    
   5955000   300.0616      -2835.7892      1715.4474      2457.3648      22.752999    
   5960000   297.97814     -2813.6002      1733.3993      2472.6641      13.633134    
   5965000   294.82279     -2781.5137      1741.0977      2474.8269     -8.248936     
   5970000   305.44346     -2807.555       1720.7822      2555.1029      2.3578746    
   5975000   297.86793     -2807.7231      1689.0384      2432.8662     -11.182462    
   5980000   304.3547      -2788.5379      1702.8474      2543.2037     -8.7919388    
   5985000   298.13527     -2807.5723      1673.0822      2420.2483     -7.5682855    
   5990000   304.25733     -2828.4744      1717.4532      2516.712       17.890422    
   5995000   295.95954     -2789.289       1676.3659      2415.8735      32.805811    
   6000000   298.48994     -2792.0912      1700.6549      2467.531      -7.5908303    
   6005000   299.98843     -2789.2793      1653.531       2441.0859      8.8943227    
   6010000   296.35265     -2804.3323      1654.4389      2383.5904      6.3604843    
   6015000   300.82986     -2831.5384      1637.4399      2392.7682     -19.883357    
   6020000   302.48128     -2827.4764      1724.144       2503.2246      20.172095    
   6025000   292.11512     -2780.0728      1747.7061      2450.592       4.9718984    
   6030000   308.13355     -2723.1084      1701.3187      2652.1606     -14.60273     
   6035000   297.33024     -2767.3158      1675.3787      2453.2027      8.2437318    
   6040000   295.86637     -2714.4823      1690.153       2503.3564     -14.606099    
   6045000   300.86572     -2760.7095      1667.2429      2493.8277      9.364827     
   6050000   292.81819     -2762.7722      1607.7763      2336.3457      4.1188889    
   6055000   308.31013     -2788.1394      1752.5343      2640.4507     -30.143525    
   6060000   304.17027     -2712.3252      1713.2342      2627.6042     -3.0235596    
   6065000   294.59555     -2719.1989      1701.3748      2494.7094      29.486861    
   6070000   305.84183     -2713.4855      1719.6355      2652.7756      27.657857    
   6075000   293.45203     -2722.6928      1685.5784      2461.7846      4.7552457    
   6080000   301.07459     -2684.9709      1715.4863      2620.3001      9.1136996    
   6085000   293.81446     -2643.7413      1654.7373      2514.2164      28.200246    
   6090000   292.63767     -2682.8959      1735.3031      2541.5965      7.9746651    
   6095000   300.1835      -2688.6279      1694.9675      2585.4995     -9.1829719    
   6100000   301.87191     -2688.7964      1743.419       2653.9139      13.320638    
   6105000   298.38237     -2703.9314      1697.6623      2551.4156      20.695274    
   6110000   299.22665     -2684.5878      1684.8231      2567.9866     -9.6936719    
   6115000   298.23781     -2692.2287      1663.5314      2527.2638      15.713136    
   6120000   294.34017     -2679.6386      1686.5769      2516.4268     -9.3263081    
   6125000   302.95006     -2696.9639      1674.909       2590.0914     -14.998295    
   6130000   298.12579     -2718.3483      1655.5166      2491.7937      10.719808    
   6135000   296.30715     -2704.4782      1684.1756      2512.6386     -11.194098    
   6140000   299.6799      -2719.8524      1713.3895      2566.6925      27.733096    
   6145000   299.20565     -2698.6909      1681.0564      2549.8664      17.14003     
   6150000   300.43358     -2666.4988      1658.8006      2574.4435      19.257558    
   6155000   294.62735     -2682.0271      1688.1934      2519.079       5.5167301    
   6160000   302.04131     -2709.7732      1646.5835      2538.1214      5.5219701    
   6165000   291.48964     -2676.0783      1663.8418      2463.2645     -14.693532    
   6170000   303.11305     -2691.1678      1733.6493      2656.5713      9.0647833    
   6175000   306.20984     -2687.5351      1718.4842      2681.9626      21.48587     
   6180000   294.27077     -2697.3898      1628.4054      2439.6766      23.962884    
   6185000   305.3381      -2719.7824      1710.398       2631.2352     -3.419912     
   6190000   300.24007     -2686.9169      1699.0613      2591.9788     -6.4086781    
   6195000   296.32568     -2705.1976      1720.4362      2548.4009      16.871265    
   6200000   294.50152     -2704.6028      1696.41        2503.2196      14.241971    
   6205000   303.13373     -2706.031       1686.1332      2594.4385      43.534929    
   6210000   302.78939     -2671.4706      1698.0761      2636.8361     -11.664943    
   6215000   300.74943     -2696.9354      1686.4522      2575.4244      27.040607    
   6220000   297.78741     -2712.562       1668.2818      2506.3106      4.278937     
   6225000   304.24366     -2699.5819      1681.4823      2609.4707      7.328653     
   6230000   299.68015     -2702.9174      1717.811       2588.0521      10.340018    
   6235000   298.22275     -2738.4034      1662.3638      2479.7419     -9.1274905    
   6240000   294.63523     -2753.2253      1712.6878      2472.4691      10.920187    
   6245000   305.32698     -2748.9867      1673.2342      2564.7345      19.40554     
   6250000   301.42583     -2753.2491      1735.8083      2576.5318      25.725049    
   6255000   304.22026     -2773.2338      1704.7656      2558.8231      18.710636    
   6260000   297.35741     -2761.4132      1731.8209      2515.8715      6.7376222    
   6265000   298.41328     -2818.5031      1675.4584      2415.0085      8.9599723    
   6270000   303.73142     -2809.8514      1664.8267      2476.438      -4.898763     
   6275000   291.84723     -2800.3251      1668.7384      2348.1779      13.418719    
   6280000   300.70947     -2811.4597      1692.612       2466.5835      0.92296547   
   6285000   294.73209     -2842.7173      1695.1344      2366.5786      8.5718719    
   6290000   293.20268     -2845.5756      1680.7733      2331.1236      36.603463    
   6295000   299.38526     -2846.686       1667.2373      2390.1936      22.222695    
   6300000   298.645       -2800.75        1719.5482      2479.6143     -4.4551161    
   6305000   307.99292     -2822.869       1673.6599      2523.0645      6.3151839    
   6310000   302.50972     -2802.7886      1774.1324      2578.2398     -7.6282017    
   6315000   300.35843     -2808.4281      1647.8368      2420.6544      26.272613    
   6320000   299.67425     -2778.4941      1726.1529      2520.7468     -16.554879    
   6325000   300.96027     -2786.8113      1642.6459      2444.2561      2.6232663    
   6330000   298.20656     -2796.7131      1665.0275      2423.9029     -1.604542     
   6335000   295.67011     -2759.5432      1681.288       2447.0905      11.283757    
   6340000   304.57115     -2811.0699      1677.1364      2497.5414      5.1910296    
   6345000   301.1752      -2780.1378      1664.597       2475.4435      8.1354824    
   6350000   306.07931     -2757.2587      1718.4591      2610.6576      7.0525297    
   6355000   298.7292      -2793.1651      1693.6477      2462.3026      5.0227161    
   6360000   302.02313     -2779.7344      1684.1859      2505.5458      20.196152    
   6365000   300.41366     -2774.1893      1667.6194      2475.3344     -6.0385142    
   6370000   302.24805     -2797.2658      1713.7086      2520.2189     -1.5183891    
   6375000   303.32857     -2774.2978      1689.8906      2532.2522     -1.8385708    
   6380000   304.22367     -2777.9011      1640.4773      2489.9081     -6.837761     
   6385000   302.1389      -2782.182       1703.8718      2524.1645     -7.6958154    
   6390000   305.02884     -2738.2685      1683.0123      2581.6758      5.3989465    
   6395000   302.56773     -2740.4067      1705.9804      2573.1613      1.9647809    
   6400000   304.1913      -2721.0284      1687.1381      2593.0557     -1.2595348    
   6405000   295.49514     -2697.8673      1747.6894      2573.0817     -5.5196608    
   6410000   301.4169      -2665.9692      1746.1303      2674.0272      32.028782    
   6415000   297.05838     -2690.7291      1679.893       2531.0623      18.680404    
   6420000   304.75692     -2656.7191      1650.3479      2627.3188      15.762766    
   6425000   293.5998      -2727.5976      1713.7132      2486.7765      10.006658    
   6430000   298.28034     -2713.3644      1666.2057      2509.3094      12.256839    
   6435000   300.61432     -2769.8594      1668.5916      2483.0289      2.1008582    
   6440000   298.23127     -2722.9063      1676.5471      2509.5238     -0.42888987   
   6445000   300.7022      -2733.2367      1679.1748      2531.2827      5.9850217    
   6450000   305.12585     -2738.4477      1688.9962      2588.6373     -4.0815696    
   6455000   301.24877     -2725.0248      1668.826       2535.6626      35.470329    
   6460000   300.5729      -2739.3568      1654.5983      2499.0444      13.36146     
   6465000   299.29373     -2755.2346      1688.4058      2501.7223      1.3409984    
   6470000   300.19903     -2734.0444      1692.906       2538.2067     -9.065944     
   6475000   296.37586     -2766.3581      1672.9079      2440.3104     -11.487788    
   6480000   294.93109     -2749.2157      1680.4089      2447.7274      9.0675773    
   6485000   294.70198     -2734.4787      1666.4767      2445.8005      9.6897863    
   6490000   303.03725     -2750.4151      1678.8415      2541.6123      20.946917    
   6495000   304.03843     -2769.0883      1682.1092      2538.1442      9.0202872    
   6500000   298.16489     -2757.4097      1628.7397      2426.4216     -11.287375    
   6505000   301.46065     -2762.7959      1593.7615      2425.3533      35.020604    
   6510000   303.97097     -2747.4739      1706.0239      2582.8689     -3.2663141    
   6515000   301.26851     -2763.5101      1657.7566      2486.3434      22.81407     
   6520000   305.94861     -2759.728       1645.7318      2533.9026     -2.638619     
   6525000   300.26476     -2789.6862      1710.7448      2501.1875      17.98121     
   6530000   304.71971     -2752.4423      1681.4011      2562.2051      7.7423087    
   6535000   304.57771     -2807.4098      1749.8878      2574.0312      25.000509    
   6540000   296.52826     -2756.492       1711.2632      2490.3488      3.8088239    
   6545000   303.12754     -2771.1864      1734.0398      2577.1159     -0.96249352   
   6550000   298.68385     -2740.2594      1694.2301      2515.25        4.5135957    
   6555000   298.73195     -2745.1162      1726.1799      2542.9165      19.939997    
   6560000   308.99174     -2770.1975      1695.2228      2609.2081      5.7200456    
   6565000   293.47136     -2784.0073      1686.6944      2401.8166      2.5717416    
   6570000   302.57888     -2784.3953      1708.2974      2531.6228      15.580379    
   6575000   294.75325     -2770.7791      1612.6688      2356.3035     -0.92523129   
   6580000   299.38817     -2755.4083      1663.4125      2477.6813      10.037528    
   6585000   301.51089     -2730.8203      1682.9978      2547.1643      12.686385    
   6590000   296.54577     -2743.7379      1659.4222      2451.4708      6.0486039    
   6595000   298.57156     -2754.0749      1660.9504      2466.8159      11.411671    
   6600000   305.34767     -2748.3141      1688.3926      2580.8121      24.314856    
   6605000   301.91656     -2763.0876      1701.02        2537.7561      1.2580124    
   6610000   300.12868     -2782.6497      1740.4647      2536.3213      10.590214    
   6615000   301.64223     -2728.3776      1665.4132      2533.5884     -2.4454698    
   6620000   299.24641     -2716.2643      1733.3623      2585.0848     -2.1225151    
   6625000   306.2819      -2750.2196      1709.0377      2610.6907     -11.352535    
   6630000   301.05677     -2768.5754      1694.4755      2515.4724     -0.18626966   
   6635000   299.6285      -2759.867       1721.2805      2533.9561      14.930562    
   6640000   304.11951     -2757.1244      1694.505       2563.4706      5.3075408    
   6645000   294.88235     -2752.2264      1681.3347      2445.0615      12.206801    
   6650000   300.09911     -2754.9654      1666.792       2489.9804      1.0742807    
   6655000   304.31879     -2763.8791      1670.588       2535.1749      16.827148    
   6660000   309.65747     -2732.1565      1650.0089      2609.9728      22.969761    
   6665000   299.1484      -2777.1644      1658.9066      2448.5604      7.7585106    
   6670000   301.64744     -2751.6866      1682.466       2527.3943      12.354784    
   6675000   301.15365     -2791.0812      1654.2777      2453.9238     -9.2306499    
   6680000   293.91534     -2773.6126      1691.0199      2421.8305      2.0109841    
   6685000   296.3534      -2741.538       1695.7643      2487.719       3.0946984    
   6690000   292.77306     -2758.2255      1678.9471      2411.5251      10.437178    
   6695000   298.34625     -2744.7482      1670.0736      2482.5794      7.7714603    
   6700000   300.23828     -2758.2521      1679.3188      2500.8798      12.517524    
   6705000   295.60459     -2727.8         1663.2383      2460.0028      25.359524    
   6710000   299.37849     -2713.3206      1704.9897      2561.2307      9.9127044    
   6715000   301.97884     -2723.389       1662.271       2539.4483      17.318176    
   6720000   296.07205     -2714.7435      1751.33        2566.7247     -0.43136801   
   6725000   301.77747     -2672.2201      1747.1965      2673.1417      4.3360191    
   6730000   304.64539     -2737.9511      1768.9111      2663.3201     -18.805328    
   6735000   302.99137     -2683.8151      1727.1557      2655.9795      16.218279    
   6740000   296.27765     -2705.5781      1738.6869      2565.6984      5.7162595    
   6745000   298.20674     -2670.2473      1695.2887      2580.632       12.865812    
   6750000   299.23461     -2700.2567      1704.5859      2572.1754     -0.13135687   
   6755000   297.77667     -2699.5075      1699.3259      2550.2812      21.924241    
   6760000   301.05775     -2699.6618      1683.3074      2573.2295      48.303796    
   6765000   296.28833     -2675.2756      1672.995       2530.4363     -10.36158     
   6770000   304.9556      -2677.3562      1668.3178      2627.0205      24.053862    
   6775000   292.44176     -2672.5095      1697.0816      2511.4255     -17.978617    
   6780000   304.20832     -2673.3635      1692.8077      2646.5931      4.2406495    
   6785000   310.99976     -2645.769       1721.6652      2784.0211      24.342174    
   6790000   294.12287     -2678.7696      1738.7878      2566.9158     -4.9385436    
   6795000   299.84011     -2736.911       1632.4401      2470.5947      21.965662    
   6800000   294.93501     -2721.8256      1704.3753      2499.1306     -3.8094174    
   6805000   296.04062     -2682.4893      1714.9402      2562.2144      41.732701    
   6810000   297.43761     -2715.6584      1662.8184      2493.5801      0.73771128   
   6815000   292.62648     -2676.3027      1660.1167      2472.8698     -20.333376    
   6820000   298.16951     -2740.7591      1702.097       2516.4846     -3.8511509    
   6825000   295.86467     -2752.7098      1640.3225      2415.2782      12.328135    
   6830000   302.6868      -2745.6911      1678.2968      2541.6132      44.855047    
   6835000   294.33163     -2735.7158      1648.5834      2422.2543     -12.002072    
   6840000   290.89329     -2699.876       1704.5714      2473.0859     -0.7747984    
   6845000   293.12845     -2714.3093      1693.5788      2474.3104     -4.7298137    
   6850000   301.18355     -2710.8489      1749.4605      2629.6953      2.8779482    
   6855000   295.64572     -2721.5052      1705.4387      2508.9885      26.811823    
   6860000   303.10697     -2755.7703      1710.6277      2568.8745     -33.651053    
   6865000   298.81708     -2742.618       1699.4616      2519.7114      33.592998    
   6870000   296.41838     -2716.4966      1670.5398      2488.3107      0.2377071    
   6875000   303.26332     -2709.9055      1655.6635      2561.6393      39.8674      
   6880000   300.25078     -2721.4003      1656.7692      2515.331       13.284858    
   6885000   302.79393     -2684.8254      1710.5598      2636.0191      9.183432     
   6890000   300.62782     -2668.3865      1738.6069      2654.6782      7.6479765    
   6895000   305.26701     -2684.5726      1670.8099      2626.0091     -16.285232    
   6900000   297.37833     -2678.8024      1721.9552      2588.866       10.820081    
   6905000   295.48419     -2670.4974      1722.3223      2574.954       21.267728    
   6910000   303.96397     -2655.9295      1690.5476      2658.8536      18.660723    
   6915000   296.11339     -2690.2871      1689.098       2529.442      -1.2234881    
   6920000   301.56844     -2665.2839      1707.4925      2637.8815      9.8933753    
   6925000   302.81174     -2674.6974      1731.0324      2666.8321      15.316313    
   6930000   305.7562      -2690.7137      1676.2303      2631.1212      7.6712555    
   6935000   301.22576     -2685.8646      1724.6892      2630.4117      17.558401    
   6940000   294.11429     -2702.5262      1685.9455      2490.2146      19.142585    
   6945000   295.04075     -2728.4074      1679.3755      2468.8099     -13.168207    
   6950000   303.89462     -2751.0414      1635.656       2508.0232      15.50462     
   6955000   301.13205     -2746.2811      1707.9761      2552.1648      27.450007    
   6960000   304.87537     -2715.0402      1693.6199      2613.682       21.884342    
   6965000   296.35402     -2704.5277      1713.8663      2542.8388      25.474256    
   6970000   301.8955      -2740.625       1725.2701      2584.2178      11.981111    
   6975000   302.67867     -2723.7934      1780.2128      2665.3299      3.0195496    
   6980000   296.55895     -2733.8835      1728.0651      2530.1252     -5.3108457    
   6985000   296.5108      -2715.9335      1686.0839      2505.5199      28.123147    
   6990000   302.83193     -2709.5221      1725.4447      2626.6604      34.721212    
   6995000   302.72821     -2693.203       1703.2962      2619.5944      11.151385    
   7000000   307.56819     -2720.3944      1649.5535      2596.3684      36.953342    
   7005000   300.26394     -2752.2942      1695.6741      2523.499       13.821192    
   7010000   298.26625     -2715.5708      1696.7798      2537.5092      7.3176675    
   7015000   304.01668     -2679.847       1679.3466      2624.3634      7.7199611    
   7020000   297.62016     -2706.9393      1679.667       2521.3243      17.987862    
   7025000   300.39255     -2723.4284      1711.2099      2569.434       2.9901555    
   7030000   297.04208     -2719.1385      1723.4186      2545.9842      44.917698    
   7035000   296.15374     -2725.427       1694.1121      2499.7973     -6.3872397    
   7040000   298.30638     -2716.2748      1688.3956      2528.8994     -0.034920862  
   7045000   293.62936     -2691.8928      1624.4567      2433.5773      8.2364222    
   7050000   293.05061     -2711.7934      1681.3292      2463.6485      1.8655247    
   7055000   305.54449     -2686.1379      1670.7311      2627.6735      17.964497    
   7060000   300.07319     -2713.7808      1708.7925      2572.8564     -1.7035671    
   7065000   302.01862     -2739.9233      1675.8916      2537.0089      31.064874    
   7070000   300.88125     -2733.1185      1675.0601      2529.4211      8.1301429    
   7075000   304.75198     -2730.106       1638.8611      2542.386       24.66062     
   7080000   303.18865     -2748.6598      1722.8306      2589.162       29.664916    
   7085000   299.09996     -2760.0974      1709.53        2515.6733      8.4604556    
   7090000   298.53313     -2722.9534      1677.6737      2514.2024      26.139211    
   7095000   304.60614     -2766.5203      1680.0478      2545.4197     -9.5413507    
   7100000   307.42542     -2760.2372      1701.3091      2606.5791      6.0094602    
   7105000   296.47058     -2751.2664      1741.218       2524.8416      16.33138     
   7110000   302.44494     -2768.0405      1703.3788      2541.462      -4.9227702    
   7115000   298.92481     -2754.3322      1764.7084      2574.5286      8.4971621    
   7120000   300.68635     -2755.6945      1749.7658      2579.2269     -10.647707    
   7125000   295.0307      -2745.8405      1697.0433      2468.9247      12.367164    
   7130000   302.69555     -2731.0471      1677.3781      2555.4428      10.659087    
   7135000   301.24217     -2753.4141      1742.3973      2580.7659      20.251427    
   7140000   297.77571     -2722.1356      1678.1472      2506.463      -7.658064     
   7145000   301.94531     -2749.7991      1787.5542      2637.9215     -29.334757    
   7150000   293.92072     -2782.8291      1682.9498      2404.6081      8.9387246    
   7155000   297.3441      -2751.9742      1680.5032      2473.8341      8.7262885    
   7160000   300.55491     -2740.2485      1730.0414      2573.3813      4.2881094    
   7165000   295.36876     -2745.3744      1768.406       2544.7843     -1.7235662    
   7170000   298.58934     -2749.6355      1675.5635      2486.0805     -12.598467    
   7175000   298.77611     -2737.9802      1662.5902      2486.9894      22.205686    
   7180000   292.44598     -2780.0658      1609.5788      2316.4167      33.443771    
   7185000   306.56842     -2750.3321      1693.7706      2598.7274      21.867563    
   7190000   302.5127      -2762.5148      1682.3153      2526.7321     -4.725537     
   7195000   294.32715     -2790.1578      1656.3643      2375.5398      14.