LAMMPS (23 Jun 2022)
OMP_NUM_THREADS environment is not set. Defaulting to 1 thread. (src/src/comm.cpp:98)
  using 1 OpenMP thread(s) per MPI task

variable 		movie equal 25000
variable		output equal 5000
variable		solvent equal 0.2  #0.2 is a good solvent, 0.5 is a bad solvent, 1.0 is no solvent/vacuum
variable		np_rad equal 25.0  #NP radius in Angstrom (= 0.1 nm)
variable		coor_del equal 3.0  # in order for a ligand to be considered to be bound, it must be within this radius of the edge of the NP VDW
variable 		s2_cutoff equal 35
variable 		E_bind equal 2.0  #ligand-NP binding energy in kcal/mol
variable		Lbox equal 150.0   #edge length of cubic simulation box
variable 		Nlig equal 600	   #number of ligands
variable		seed equal 314159
variable		trajsteps equal 25000000	 #number of timesteps (length of simulation)
restart			2500000 save

units 			real
atom_style		molecular

region 			box block 0 ${Lbox} 0 ${Lbox} 0 ${Lbox} units box
region 			box block 0 150 0 ${Lbox} 0 ${Lbox} units box
region 			box block 0 150 0 150 0 ${Lbox} units box
region 			box block 0 150 0 150 0 150 units box
create_box		4 box bond/types 2 angle/types 1 extra/bond/per/atom 2 extra/angle/per/atom 1 extra/special/per/atom 3
Created orthogonal box = (0 0 0) to (150 150 150)
  4 by 4 by 4 MPI processor grid

molecule		lig ligand.mol
Read molecule template lig:
  1 molecules
  0 fragments
  5 atoms with max type 2
  4 bonds with max type 1
  3 angles with max type 1
  0 dihedrals with max type 0
  0 impropers with max type 0
#molecule		hex hexane.mol

mass            1 60 #C1, MARTINI bead representing a 4-carbon segment of an alkyl chain
mass            2 60 #N6d, MARTINI bead representing a NH2 amino group + a 2-carbon segment of an alkyl chain
mass            3 43 #SC2, MARTINI bead representing a 3-carbon segment of an alkyl chain. NOT USED IN THIS SIMULATION!
mass            4 500 #a spherical nanoparticle. the mass is not realistic.

# put NP in center
create_atoms	4 single $(v_Lbox/2) $(v_Lbox/2) $(v_Lbox/2) units box
create_atoms	4 single 75 $(v_Lbox/2) $(v_Lbox/2) units box
create_atoms	4 single 75 75 $(v_Lbox/2) units box
create_atoms	4 single 75 75 75 units box
Created 1 atoms
  using box units in orthogonal box = (0 0 0) to (150 150 150)
  create_atoms CPU = 0.000 seconds

# define region as everything outside a spherical center in sim. box. ASSUME SIM. BOX IS IMPLIED? doc seems to...
region			box_with_hole sphere $(v_Lbox/2) $(v_Lbox/2) $(v_Lbox/2) $(v_np_rad+5.0) side out units box
region			box_with_hole sphere 75 $(v_Lbox/2) $(v_Lbox/2) $(v_np_rad+5.0) side out units box
region			box_with_hole sphere 75 75 $(v_Lbox/2) $(v_np_rad+5.0) side out units box
region			box_with_hole sphere 75 75 75 $(v_np_rad+5.0) side out units box
region			box_with_hole sphere 75 75 75 30 side out units box

create_atoms	0 random ${Nlig} ${seed} box_with_hole mol lig 12345
create_atoms	0 random 600 ${seed} box_with_hole mol lig 12345
create_atoms	0 random 600 314159 box_with_hole mol lig 12345
Created 3000 atoms
  using lattice units in orthogonal box = (0 0 0) to (150 150 150)
  create_atoms CPU = 0.004 seconds

pair_style		lj/expand 12.0
pair_modify		shift yes

#pair_coeff		1 1 energy sigma delta cut

#ligand-ligand interactions
pair_coeff		1 1 $(v_solvent*0.810) 4.7 0 12
pair_coeff		1 1 0.16200000000000003286 4.7 0 12
pair_coeff		2 2 $(v_solvent*0.841) 4.7 0 12
pair_coeff		2 2 0.16820000000000001616 4.7 0 12
pair_coeff		1 2 $(v_solvent*0.667) 4.7 0 12
pair_coeff		1 2 0.13340000000000001856 4.7 0 12

#solvent-ligand interactions, NOT USED IN THIS SIMULATION
pair_coeff		3 3 0.562 4.1 0 12
pair_coeff		1 3 0.755 4.3 0 12
pair_coeff		2 3 0.554 4.3 0 12

#interactions involving the NP
pair_coeff  	1 4 0.100 4.0 $(v_np_rad-2.5) 12
pair_coeff  	1 4 0.100 4.0 22.5 12
pair_coeff  	3 4 0.100 4.0 $(v_np_rad-2.5) 12
pair_coeff  	3 4 0.100 4.0 22.5 12
pair_coeff		4 4 0.100 4.0 $(2*v_np_rad-4.0) 12
pair_coeff		4 4 0.100 4.0 46 12
pair_coeff   	2 4 ${E_bind} 4.0 $(v_np_rad-2.5) 12 #this interaction controls the binding strength of ligands to the NP core
pair_coeff   	2 4 2 4.0 $(v_np_rad-2.5) 12 
pair_coeff   	2 4 2 4.0 22.5 12 

bond_style  	harmonic
bond_coeff  	1 4.54 4.7 	#C1-C1
bond_coeff		2 5.98 4.05 #SC2-SC2, hexane

angle_style		cosine/squared
angle_coeff		1 4.1826 180

special_bonds 	lj 0 1 1
Finding 1-2 1-3 1-4 neighbors ...
  special bond factors lj:    0        1        1       
  special bond factors coul:  0        0        0       
     2 = max # of 1-2 neighbors
     2 = max # of 1-3 neighbors
     2 = max # of 1-4 neighbors
     7 = max # of special neighbors
  special bonds CPU = 0.002 seconds

group			ligands type 1 2
3000 atoms in group ligands


#EQULILIBRATION: getting rid of overlaps between particles using fix nve/limit ***************

fix 			1 ligands nve/limit 0.1
fix 			2 ligands langevin 300 300 1000 12345 #langevin thermostat

timestep		30

thermo 			${output}
thermo 			5000

dump      		1 all custom 5000 pos.lammpstrj type x y z
dump_modify		1 sort id

run				10000
Generated 0 of 6 mixed pair_coeff terms from geometric mixing rule
Neighbor list info ...
  update every 1 steps, delay 10 steps, check yes
  max neighbors/atom: 2000, page size: 100000
  master list distance cutoff = 60
  ghost atom cutoff = 60
  binsize = 30, bins = 5 5 5
  1 neighbor lists, perpetual/occasional/extra = 1 0 0
  (1) pair lj/expand, perpetual
      attributes: half, newton on
      pair build: half/bin/newton
      stencil: half/bin/3d
      bin: standard
Per MPI rank memory allocation (min/avg/max) = 8.076 | 8.105 | 8.367 Mbytes
   Step          Temp          E_pair         E_mol          TotEng         Press     
         0   0              9.8623636e+13  4.0068356e-25  9.8623636e+13  8.0147754e+12
      5000   142.74842     -326.66004      613.95264      1563.8104      2.1335232    
     10000   141.22807     -330.65081      611.73305      1544.0044     -0.79350536   
Loop time of 3.85499 on 64 procs for 10000 steps with 3001 atoms

Performance: 6723.746 ns/day, 0.004 hours/ns, 2594.038 timesteps/s
99.5% CPU use with 64 MPI tasks x 1 OpenMP threads

MPI task timing breakdown:
Section |  min time  |  avg time  |  max time  |%varavg| %total
---------------------------------------------------------------
Pair    | 0.016677   | 0.051557   | 0.14079    |  10.5 |  1.34
Bond    | 0.0092204  | 0.020973   | 0.040293   |   4.0 |  0.54
Neigh   | 0.6636     | 0.66912    | 0.67642    |   0.3 | 17.36
Comm    | 2.8976     | 3.0335     | 3.0969     |   2.1 | 78.69
Output  | 0.0012393  | 0.0012484  | 0.0012556  |   0.0 |  0.03
Modify  | 0.01861    | 0.040154   | 0.074126   |   5.2 |  1.04
Other   |            | 0.03843    |            |       |  1.00

Nlocal:        46.8906 ave          92 max          23 min
Histogram: 7 13 11 9 9 5 5 3 1 1
Nghost:        3404.61 ave        3488 max        3337 min
Histogram: 2 7 13 5 11 11 5 8 1 1
Neighs:        330.984 ave         976 max         124 min
Histogram: 21 11 12 7 3 7 2 0 0 1

Total # of neighbors = 21183
Ave neighs/atom = 7.0586471
Ave special neighs/atom = 3.5988004
Neighbor list builds = 909
Dangerous builds = 0

#PRODUCTION RUN ******************************************************************************

unfix 			1
fix 			1 ligands nve
undump			1
# define spherical region in center of sim. box
# region			center sphere $(v_Lbox/2) $(v_Lbox/2) $(v_Lbox/2) $(v_np_rad+5.0) units box
# delete atoms in the region
# delete_atoms	region center mol yes
# put NP in the hole
# create_atoms	4 single $(v_Lbox/2) $(v_Lbox/2) $(v_Lbox/2) units box

dump      		2 all custom ${movie} pos2.lammpstrj type x y z
dump      		2 all custom 25000 pos2.lammpstrj type x y z
dump_modify		2 sort id
dump 			2. all custom ${output} pos2_long.lammpstrj type x y z
dump 			2. all custom 5000 pos2_long.lammpstrj type x y z
dump_modify 	2. sort id

group           nps     type 4
1 atoms in group nps
group           amines  type 2
600 atoms in group amines

# count coordination number of NP
compute coords nps coord/atom cutoff $(v_np_rad + v_coor_del) 2
compute coords nps coord/atom cutoff 28 2
dump 3 nps custom ${output} coords.dmp c_coords
dump 3 nps custom 5000 coords.dmp c_coords
# equivalent calculation below
# compute coords nps coord/atom cutoff 28 group amines
# dump 4 nps custom ${output} coords2.dmp type c_coords2

# seond shell
compute coords2 nps coord/atom cutoff ${s2_cutoff} 2
compute coords2 nps coord/atom cutoff 35 2
dump 4 nps custom ${output} coords2.dmp c_coords2
dump 4 nps custom 5000 coords2.dmp c_coords2



run				${trajsteps}
run				25000000
Generated 0 of 6 mixed pair_coeff terms from geometric mixing rule
Neighbor list info ...
  update every 1 steps, delay 10 steps, check yes
  max neighbors/atom: 2000, page size: 100000
  master list distance cutoff = 60
  ghost atom cutoff = 60
  binsize = 30, bins = 5 5 5
  3 neighbor lists, perpetual/occasional/extra = 1 2 0
  (1) pair lj/expand, perpetual
      attributes: half, newton on
      pair build: half/bin/newton
      stencil: half/bin/3d
      bin: standard
  (2) compute coord/atom, occasional
      attributes: full, newton on
      pair build: full/bin
      stencil: full/bin/3d
      bin: standard
  (3) compute coord/atom, occasional
      attributes: full, newton on
      pair build: full/bin
      stencil: full/bin/3d
      bin: standard
Per MPI rank memory allocation (min/avg/max) = 10.11 | 10.24 | 12.12 Mbytes
   Step          Temp          E_pair         E_mol          TotEng         Press     
     10000   141.22807     -330.65081      611.73305      1544.0044     -0.79350536   
     15000   307.07089     -220.28866      1298.1865      3823.8578      10.187643    
     20000   298.14677     -226.84974      1258.3231      3697.63        9.5848413    
     25000   295.74864     -210.93516      1250.5133      3684.2898      14.267547    
     30000   305.56181     -208.06159      1247.0356      3771.4391      9.0526068    
     35000   295.38402     -205.03951      1265.929       3702.3404      13.192043    
     40000   300.47595     -205.00132      1248.1916      3730.1755      12.075659    
     45000   308.20838     -210.43258      1266.3656      3812.0649      8.0114197    
     50000   296.08595     -220.71447      1283.9611      3710.9745      6.6236387    
     55000   296.93995     -228.58352      1295.9034      3722.6847      3.7327227    
     60000   305.21791     -199.3106       1316.843       3846.9222      3.0894171    
     65000   301.76665     -214.34836      1283.4052      3767.584       6.2631077    
     70000   297.90188     -201.41402      1309.3099      3771.8626      6.6544942    
     75000   304.32612     -196.14248      1324.1254      3849.398       2.9835651    
     80000   296.32041     -219.84005      1324.8913      3754.8759      9.165503     
     85000   304.90235     -195.71711      1309.1669      3840.0178      5.0766451    
     90000   307.46431     -216.35256      1236.7163      3769.8418      12.943588    
     95000   300.83573     -203.6053       1252.5149      3739.1121      8.6693435    
    100000   301.48151     -215.62711      1259.6778      3740.028       5.9727296    
    105000   305.6004      -213.96605      1287.8502      3806.6944      9.9339112    
    110000   290.81119     -202.74744      1267.1077      3664.919       5.9036735    
    115000   300.15138     -213.22553      1278.9117      3749.7689      6.917516     
    120000   297.14804     -212.93338      1279.8832      3724.1754      5.4159635    
    125000   303.65311     -211.55072      1313.9649      3817.8109      3.3375356    
    130000   305.46574     -206.58038      1258.9028      3783.9284      6.4582535    
    135000   302.97706     -215.7874       1339.2217      3832.7855      5.6560573    
    140000   300.94436     -216.52906      1287.2408      3761.8856      5.9093797    
    145000   297.74814     -212.39837      1223.9278      3674.1214      1.4574393    
    150000   299.35991     -229.63774      1294.129       3741.4963      9.2989245    
    155000   301.27258     -217.16789      1252.6577      3729.5988      14.018624    
    160000   294.67832     -219.08803      1287.4952      3703.5474      13.985127    
    165000   295.37963     -216.06429      1264.2635      3689.6109      7.1961722    
    170000   300.43616     -209.96415      1269.6329      3746.2982      11.229717    
    175000   293.92692     -191.3434       1294.2838      3731.3613     -3.4382628    
    180000   301.675       -205.48796      1266.94        3759.1597      9.0422616    
    185000   301.07884     -221.54459      1295.1348      3765.9668      2.0730052    
    190000   306.99974     -223.82139      1285.4214      3806.9237      12.239359    
    195000   305.12627     -216.81147      1260.0078      3771.7667      3.6213124    
    200000   301.8147      -220.71167      1283.2139      3761.4591      7.2631783    
    205000   302.88253     -198.86381      1292.7684      3802.4104      10.503805    
    210000   296.93968     -211.10676      1313.3579      3757.6135      8.4479545    
    215000   305.61912     -199.73385      1280.5579      3813.8017      2.2782875    
    220000   295.00655     -222.74637      1282.6899      3698.0191      3.8163876    
    225000   294.78215     -213.35731      1263.3377      3686.0492      5.3488314    
    230000   303.4903      -183.92124      1272.8103      3802.8299      10.33132     
    235000   303.7331      -223.31724      1296.5251      3789.3199      8.6732898    
    240000   296.24581     -215.39785      1303.1777      3736.9373      7.3191641    
    245000   290.99659     -206.98656      1298.9935      3694.2237      3.8566428    
    250000   293.51024     -218.5562       1279.1242      3685.2628      6.9362129    
    255000   302.65003     -218.96784      1292.0692      3779.5281      2.3568409    
    260000   300.50702     -209.64399      1269.762       3747.3811      1.3214552    
    265000   303.56587     -199.46848      1290.7569      3805.905       4.8936341    
    270000   304.07112     -226.50047      1293.3709      3786.0052      10.148378    
    275000   301.88804     -203.9285       1284.2733      3779.9575      15.827771    
    280000   297.48257     -214.06129      1338.0263      3784.1821      6.7042289    
    285000   297.39635     -207.88485      1296.0927      3747.654       15.41215     
    290000   293.98654     -191.28595      1293.3523      3731.0205      6.9763389    
    295000   298.16789     -218.47386      1262.3217      3710.1934      1.7141256    
    300000   292.17887     -196.05308      1261.5763      3678.3123      4.769668     
    305000   308.59723     -208.136        1266.9671      3818.4403      9.673327     
    310000   305.75953     -202.60263      1281.3833      3813.014       6.4146484    
    315000   296.39464     -207.38716      1303.7119      3746.8131      6.1848805    
    320000   297.40046     -194.3201       1277.5553      3742.7181      12.030627    
    325000   289.02169     -210.5418       1293.7123      3667.7268      12.549233    
    330000   293.96218     -205.47603      1255.098       3678.3582      6.0669581    
    335000   302.49826     -202.45541      1327.4589      3830.073       11.875361    
    340000   295.17486     -226.68718      1301.8028      3714.6962      9.7058033    
    345000   298.42851     -214.93197      1285.2815      3739.0257      6.9474625    
    350000   293.59578     -197.39409      1309.834       3737.8997      0.66129792   
    355000   300.9989      -228.0112       1279.045       3742.6954      2.4469381    
    360000   301.00671     -201.63443      1318.2714      3808.3685      8.6497354    
    365000   294.27456     -203.80708      1301.4788      3729.2014      10.147487    
    370000   306.91102     -209.9697       1261.8252      3796.3859      10.942666    
    375000   302.0399      -216.59472      1288.7943      3773.1702      7.8656552    
    380000   306.31591     -208.70432      1235.5405      3766.0448      8.3190602    
    385000   299.04843     -209.97925      1231.4038      3695.6442      3.3217716    
    390000   301.17372     -198.17327      1296.237       3791.2887      12.72446     
    395000   308.25717     -209.38483      1265.1306      3812.314       9.5579773    
    400000   307.00168     -204.99282      1236.7036      3777.0519      7.9570964    
    405000   310.33921     -197.48286      1279.3623      3857.0662      8.9391228    
    410000   301.05416     -222.58873      1297.181       3766.748       6.9721917    
    415000   298.53211     -210.46411      1283.8737      3743.0121      5.3139697    
    420000   294.50039     -191.12086      1209.885       3652.3133      1.7838864    
    425000   299.92651     -190.76878      1259.7437      3751.0467      1.7078804    
    430000   295.36754     -195.89207      1293.613       3739.0246      11.601145    
    435000   296.33717     -192.43851      1313.2797      3770.8156      3.8423923    
    440000   292.57054     -211.09757      1280.6764      3685.8705      10.250756    
    445000   299.42614     -194.78357      1280.7272      3763.541       7.7732002    
    450000   307.06302     -192.29058      1284.5726      3838.1717      10.993477    
    455000   296.12857     -185.15448      1287.7209      3750.6754      10.423941    
    460000   302.84606     -204.4979       1280.4444      3784.1262      3.5284051    
    465000   291.42044     -204.58587      1245.7841      3647.2052      5.9740934    
    470000   300.73415     -200.37456      1261.6666      3750.5862      12.354282    
    475000   309.38454     -202.76136      1266.6334      3830.5217      9.022056     
    480000   297.87424     -207.43653      1278.304       3734.587       13.92247     
    485000   300.00698     -194.43089      1273.829       3762.1896      8.3770501    
    490000   297.77818     -210.2456       1269.5252      3722.1402      10.584254    
    495000   301.89846     -212.13653      1254.0332      3741.6026      12.262463    
    500000   297.14184     -215.49241      1289.4958      3731.1735      15.979769    
    505000   301.38524     -202.47587      1285.1644      3777.805       7.1899385    
    510000   297.06291     -209.53937      1283.209       3730.134       4.2082731    
    515000   297.25304     -209.05121      1294.9899      3744.1033      7.1587895    
    520000   298.47278     -227.71843      1280.8799      3722.2335      11.559932    
    525000   313.7289      -214.27943      1263.952       3855.1713      18.099312    
    530000   299.75304     -218.46465      1321.8185      3783.8745      4.182632     
    535000   302.74318     -201.90245      1275.3345      3780.6918      3.8609314    
    540000   306.65457     -198.50085      1273.4163      3817.1525      2.3601877    
    545000   303.20536     -212.27791      1235.2696      3734.3845      15.214458    
    550000   306.96543     -198.96017      1300.7802      3846.837       9.4416733    
    555000   292.89547     -206.03393      1236.4992      3649.6626      10.824819    
    560000   305.36406     -200.39479      1312.2826      3842.5846      14.796619    
    565000   297.65378     -221.99869      1261.5393      3701.2887      7.5473341    
    570000   307.12685     -209.76406      1250.337       3787.0333      14.355248    
    575000   299.08616     -192.05719      1269.5471      3752.047       12.077893    
    580000   309.64022     -202.63911      1294.1275      3860.4243      4.7794887    
    585000   303.97939     -210.67812      1235.5248      3743.1611      9.2447509    
    590000   292.0396      -212.66242      1302.278       3701.1593      2.7258462    
    595000   307.27198     -211.37916      1306.6343      3843.0133      6.0074796    
    600000   297.93507     -220.43832      1307.8914      3751.7166      11.657298    
    605000   295.16055     -216.31212      1284.7084      3707.8489      7.8667841    
    610000   299.86407     -218.24116      1286.298       3749.5704      2.7088352    
    615000   292.93603     -223.41879      1304.5933      3700.7345      3.1263694    
    620000   294.23296     -212.6582       1299.92        3718.4195      2.5142918    
    625000   309.66876     -219.62026      1274.9692      3824.5402      2.6097227    
    630000   300.43537     -190.11057      1258.6548      3755.1666      11.095341    
    635000   303.05856     -207.28415      1265.7263      3768.5222      5.9288251    
    640000   291.23775     -216.75417      1296.4231      3684.0422      5.545248     
    645000   313.26187     -204.64473      1317.2548      3913.9325      6.4889457    
    650000   301.92679     -202.04884      1292.6955      3790.6059      7.8986724    
    655000   291.64419     -202.80086      1349.7842      3754.9912      11.376633    
    660000   305.57545     -214.88165      1271.4582      3789.1636      4.2263272    
    665000   301.54613     -208.3656       1297.9111      3786.1007      7.2545947    
    670000   306.83521     -208.86952      1278.1598      3813.1427      6.6673151    
    675000   306.40677     -203.98647      1246.058       3782.0926      15.51886     
    680000   302.36119     -213.49678      1251.3343      3741.6814      22.571847    
    685000   293.77681     -217.19768      1300.3772      3710.2581      7.4582007    
    690000   309.82579     -217.48013      1228.6358      3781.7512      9.115771     
    695000   300.44237     -204.47397      1293.3388      3775.5497      11.10731     
    700000   299.65613     -214.84643      1265.4149      3730.2224      2.7435388    
    705000   304.90873     -206.88361      1298.4169      3818.1583      12.126984    
    710000   294.52342     -208.07035      1308.0478      3733.7326      8.3656906    
    715000   312.35353     -190.95401      1245.1777      3847.4233      14.147219    
    720000   298.97412     -216.17788      1290.5858      3747.9631      9.9426295    
    725000   297.13977     -220.90252      1313.2368      3749.4858      6.5363618    
    730000   306.09966     -221.47975      1306.9144      3822.7094      5.2454634    
    735000   306.82057     -227.52652      1233.7963      3749.9913      13.448443    
    740000   293.57254     -194.6383       1258.7865      3689.4001      13.180528    
    745000   299.01807     -219.62332      1271.1955      3725.5205      2.2932818    
    750000   295.22705     -203.28092      1268.1835      3704.9499      7.2267416    
    755000   307.29668     -212.12278      1286.9073      3822.7636     -1.0262767    
    760000   300.21246     -213.89189      1264.0597      3734.7968      4.8275216    
    765000   302.64794     -197.70454      1287.8156      3796.5192      11.493607    
    770000   292.61252     -209.9505       1339.4705      3746.1871      12.133049    
    775000   303.08136     -214.65224      1270.7578      3766.3894      11.981313    
    780000   301.31912     -220.43999      1306.5022      3780.5874      11.19854     
    785000   299.54973     -222.44917      1333.5225      3789.7759      10.537848    
    790000   301.26336     -219.51598      1239.0357      3713.5463      7.4042016    
    795000   298.00038     -211.36205      1254.5087      3707.9942      6.06625      
    800000   302.87717     -216.87189      1264.2265      3755.8125      3.9379119    
    805000   297.01521     -205.58094      1318.7959      3769.2527      9.7259077    
    810000   301.22712     -208.90168      1295.4071      3780.2079      4.6268155    
    815000   300.40472     -223.37247      1272.1428      3735.1186      10.348537    
    820000   306.22233     -210.06039      1298.4917      3826.8032      6.7222932    
    825000   294.94858     -202.51168      1263.009       3698.0544      8.9229911    
    830000   302.14268     -204.45331      1283.8583      3781.2948      10.170825    
    835000   291.86214     -203.04105      1297.6451      3704.5609      8.9139838    
    840000   300.04303     -206.9014       1273.7603      3749.9728     -3.2834061    
    845000   299.23232     -224.50403      1307.7603      3759.1204      3.2827325    
    850000   303.05317     -204.00007      1303.3094      3809.3412      14.213091    
    855000   300.12306     -211.69288      1328.1244      3800.261       4.5936429    
    860000   296.717       -193.57614      1237.69        3697.4849      12.449449    
    865000   292.60617     -196.91861      1269.8899      3689.5815      4.5094542    
    870000   293.98895     -199.39788      1297.3016      3726.8794      10.865568    
    875000   296.33932     -205.95482      1265.106       3709.1449      11.500204    
    880000   298.6147      -207.96388      1309.6863      3772.0635      11.46752     
    885000   303.34776     -215.51977      1282.3686      3779.515       6.2565179    
    890000   300.06662     -209.43966      1281.3931      3755.2782      15.698611    
    895000   304.73747     -205.69533      1314.9584      3834.3566      1.8544881    
    900000   291.57763     -205.84467      1262.13        3663.6979      5.7788858    
    905000   305.37814     -203.14458      1252.9509      3780.629       7.4510138    
    910000   299.84604     -211.20226      1301.5017      3771.6517      13.641606    
    915000   305.56513     -205.72895      1272.2229      3798.9888     -1.2222998    
    920000   294.9198      -187.69479      1312.0527      3761.6576      9.6240882    
    925000   305.66316     -200.8279       1301.8584      3834.4019      9.9424443    
    930000   306.64283     -230.11525      1289.6132      3801.63        15.772529    
    935000   307.10519     -208.89269      1279.237       3816.6111      12.849469    
    940000   298.40669     -210.0861       1295.7356      3754.1305      7.2957744    
    945000   300.81007     -214.74477      1277.0578      3752.286       4.3317436    
    950000   304.65431     -191.67431      1280.6078      3813.2833      12.108495    
    955000   295.09335     -206.8784       1238.7265      3670.6998      7.715563     
    960000   296.23171     -217.10193      1260.6192      3692.5487      6.349293     
    965000   300.46457     -210.56063      1304.7561      3781.0789      10.175011    
    970000   304.00212     -193.77402      1327.1808      3851.9244      12.668021    
    975000   293.92346     -215.643        1294.5079      3707.2549      7.3077527    
    980000   299.62874     -215.68671      1258.2498      3721.9722      11.244084    
    985000   290.73225     -212.99074      1253.1394      3640.0015      14.833191    
    990000   293.84079     -208.60746      1324.7655      3743.8088      13.131255    
    995000   304.40863     -217.65463      1307.9527      3812.451       5.8915549    
   1000000   304.24295     -221.43316      1288.5987      3787.8368      3.0483502    
   1005000   300.8441      -215.70793      1261.3156      3735.885       6.2569189    
   1010000   291.03851     -214.23638      1297.6991      3686.0543      8.7648723    
   1015000   294.83167     -217.16583      1260.0236      3679.3694      10.269712    
   1020000   303.89066     -216.39333      1347.9978      3849.1255      8.9645067    
   1025000   304.59624     -217.4985       1297.6917      3804.0238      8.251122     
   1030000   302.03172     -213.36042      1228.857       3716.3941      1.7609635    
   1035000   291.0222      -208.0948       1282.0432      3676.3941      8.3437902    
   1040000   298.11392     -198.46988      1288.2123      3755.6053      7.8516528    
   1045000   296.19194     -214.76643      1294.292       3728.2014      11.035782    
   1050000   297.82532     -211.2774       1270.8798      3722.8846      5.6412903    
   1055000   301.0986      -202.33182      1311.8755      3802.0969      7.5335358    
   1060000   301.4517      -224.29178      1273.1532      3744.5722      2.4081799    
   1065000   295.77141     -218.64109      1291.7507      3718.0248      4.0473424    
   1070000   289.60626     -212.68599      1295.5119      3672.6096      4.4042902    
   1075000   302.45202     -212.13651      1269.5535      3762.0731      5.8044369    
   1080000   302.76248     -208.87827      1293.0013      3791.5553      5.7299332    
   1085000   296.12357     -214.37902      1256.8937      3690.579       6.8182092    
   1090000   302.59325     -207.27584      1273.1774      3771.8206     -0.30754703   
   1095000   300.71407     -202.7851       1267.6125      3753.9419      3.0976541    
   1100000   292.50051     -204.48529      1317.1649      3728.345       4.6531307    
   1105000   293.95571     -216.43582      1308.3391      3720.5817      6.2758971    
   1110000   301.14187     -206.07593      1296.7162      3783.5804      3.7440266    
   1115000   306.92255     -207.78813      1267.3683      3804.2136      6.2575598    
   1120000   297.60489     -226.65534      1275.3931      3710.0487      15.058545    
   1125000   303.81394     -203.31482      1256.1048      3769.6249      14.207137    
   1130000   300.79709     -207.66099      1309.6559      3791.8519      4.0986348    
   1135000   300.63938     -207.90172      1296.7223      3777.2673      4.605257     
   1140000   301.03638     -221.06536      1311.6489      3782.5804      5.9925997    
   1145000   301.64448     -192.47813      1302.7424      3807.699       7.4376588    
   1150000   308.91903     -220.1047       1266.8052      3809.1873      5.6931412    
   1155000   301.85042     -229.30978      1302.6943      3772.6608      7.4685787    
   1160000   307.48971     -204.27657      1250.3543      3795.783       3.2069842    
   1165000   302.04939     -206.93358      1305.2925      3799.4145      7.1372668    
   1170000   294.31526     -207.97837      1256.4067      3680.322       6.2823058    
   1175000   302.40105     -219.87876      1276.21        3760.5315      8.370402     
   1180000   297.2493      -216.5478       1316.8193      3758.4026      8.6414532    
   1185000   297.60804     -213.51528      1246.9392      3694.763       3.2229583    
   1190000   296.31012     -216.32574      1247.8806      3681.2874      9.4961618    
   1195000   300.5768      -213.52255      1302.1596      3776.5241      9.3572558    
   1200000   297.66818     -179.18811      1261.642       3744.3308      6.9726375    
   1205000   295.90855     -198.71297      1236.9589      3684.3875      7.8377291    
   1210000   296.56831     -203.93067      1325.9903      3774.101       7.4622852    
   1215000   298.53292     -214.37899      1290.9633      3746.1941      9.2410599    
   1220000   305.69366     -212.78657      1284.1756      3805.0332      8.1087632    
   1225000   306.1471      -208.84858      1289.4533      3818.3038      8.0987853    
   1230000   300.29391     -203.96708      1276.8018      3758.1921      9.0244487    
   1235000   298.45739     -225.12391      1319.7795      3763.59        4.4187803    
   1240000   301.77425     -211.11335      1280.2155      3767.6973      17.899636    
   1245000   301.60968     -211.28613      1274.6937      3760.531       9.4354875    
   1250000   301.54418     -203.69751      1313.4828      3806.323       8.4309006    
   1255000   297.10796     -196.74629      1290.6964      3750.8173      6.3780507    
   1260000   304.05784     -189.29063      1319.3075      3849.0329      0.4491062    
   1265000   313.64822     -215.65394      1309.1467      3898.2701      10.352869    
   1270000   302.41371     -217.10724      1295.9928      3783.1991      7.5399289    
   1275000   304.74556     -224.03924      1281.4914      3782.618       2.8732211    
   1280000   297.67683     -225.30661      1278.943       3715.5906      12.541927    
   1285000   299.91988     -213.50433      1274.4659      3742.9742      7.827648     
   1290000   297.67924     -197.99741      1291.6608      3755.6391     -0.43211751   
   1295000   304.19985     -213.75601      1266.2912      3772.8211      12.30502     
   1300000   295.24801     -212.10153      1265.7704      3693.9035      3.314807     
   1305000   296.3374      -214.85831      1289.1605      3724.2787      12.602466    
   1310000   291.37943     -232.53454      1238.6234      3611.7291      7.2742993    
   1315000   300.74504     -208.23137      1292.0507      3773.2108      7.3860829    
   1320000   304.98966     -199.16525      1326.3822      3854.5657      12.924142    
   1325000   303.91184     -205.50956      1312.1628      3824.3636      10.210349    
   1330000   304.06748     -201.76092      1341.744       3859.0853     -0.0925576    
   1335000   299.15785     -212.03307      1260.2527      3723.4178      4.6722759    
   1340000   303.03491     -205.13208      1323.0981      3827.8345      11.862283    
   1345000   294.81349     -217.10857      1263.3789      3682.6193      10.913712    
   1350000   300.79068     -209.3952       1228.7079      3709.1123      7.2153196    
   1355000   307.01564     -202.20076      1276.292       3819.5571      7.1077847    
   1360000   299.41571     -204.7586       1312.5921      3785.3376      3.3345315    
   1365000   301.78125     -213.28023      1304.4828      3789.8603      5.0524563    
   1370000   295.96532     -229.26911      1267.5872      3684.9673      10.976229    
   1375000   300.04564     -216.33954      1257.2257      3724.0234      10.326757    
   1380000   304.13153     -213.94225      1250.0062      3755.7389      16.479973    
   1385000   295.24253     -208.00318      1290.6287      3722.8112      12.226574    
   1390000   304.10995     -217.2255       1252.2537      3754.5101      11.62738     
   1395000   303.92894     -207.64723      1295.186       3805.4021      7.1045145    
   1400000   300.8925      -197.42475      1259.2904      3752.5759      5.0198448    
   1405000   298.31816     -205.51243      1275.0078      3737.1847      3.2869841    
   1410000   302.89606     -198.90694      1261.6384      3771.3582      8.5811755    
   1415000   299.15078     -210.92932      1260.0725      3724.2781      16.291794    
   1420000   301.56995     -192.73227      1290.6658      3794.7017      10.863308    
   1425000   295.29659     -213.62359      1286.6335      3713.679       9.5039035    
   1430000   302.75343     -208.47189      1293.3297      3792.2092      2.5374409    
   1435000   295.923       -205.14388      1288.3655      3729.4923      4.907226     
   1440000   307.91179     -202.76307      1346.8086      3897.5253      9.6442717    
   1445000   304.70766     -206.22005      1221.9641      3740.571       7.215628     
   1450000   299.73686     -195.47181      1306.2313      3791.1354      3.6846376    
   1455000   299.7841      -227.09044      1287.9748      3741.6827      5.7102694    
   1460000   288.804       -197.44336      1279.8166      3664.9828      15.156847    
   1465000   303.53041     -214.89983      1297.2567      3796.6563      12.97207     
   1470000   298.86455     -226.61096      1290.1542      3736.1186      3.8009761    
   1475000   297.33361     -207.309        1295.8886      3747.4647      6.4567353    
   1480000   295.53856     -198.55695      1295.5057      3739.7817      6.8746154    
   1485000   302.67259     -203.7642       1279.4184      3782.2828      6.612873     
   1490000   298.67804     -202.52288      1245.396       3713.7806      6.4553353    
   1495000   299.37389     -219.0838       1331.0531      3789.0994      2.3792563    
   1500000   296.16248     -208.53292      1287.1207      3727           16.608485    
   1505000   297.97176     -215.18225      1288.8053      3738.2147      4.2753223    
   1510000   297.8331      -205.70476      1274.6391      3732.286       14.67078     
   1515000   298.42309     -214.70232      1302.4333      3756.3586      2.3047481    
   1520000   301.37442     -221.39819      1227.7273      3701.3488      1.5206192    
   1525000   302.53755     -210.2273       1232.9417      3728.1353      6.903186     
   1530000   297.79013     -204.03186      1270.8014      3729.737       8.3321704    
   1535000   295.95362     -223.03445      1305.044       3728.5541      13.874961    
   1540000   302.73089     -206.92855      1305.6991      3805.9204      13.91431     
   1545000   294.05826     -193.42311      1298.5876      3734.7599      3.9399537    
   1550000   305.42059     -219.49837      1275.4644      3787.1683      2.5386795    
   1555000   296.71616     -212.55084      1274.86        3715.6727      8.3655958    
   1560000   296.3843      -183.39805      1276.9566      3743.9544      11.798982    
   1565000   302.04229     -201.78054      1305.675       3804.8866      10.404372    
   1570000   300.70026     -207.50794      1274.1463      3755.6294      6.4735207    
   1575000   300.21113     -218.45953      1289.0046      3755.1622      1.8695239    
   1580000   300.68402     -213.60933      1300.1366      3775.3732      8.9078436    
   1585000   300.32285     -197.09973      1242.6976      3731.2139      12.180568    
   1590000   298.38792     -204.68859      1283.4508      3747.0753      11.423942    
   1595000   298.5049      -205.68846      1251.6923      3715.363       14.088785    
   1600000   296.90226     -211.34778      1256.8928      3700.5728      8.7990053    
   1605000   303.72597     -208.73134      1282.0875      3789.4044      9.170551     
   1610000   295.96008     -197.62895      1267.937       3716.9104      7.0020431    
   1615000   305.10495     -193.58946      1299.717       3834.5073      6.2096197    
   1620000   296.58169     -218.00543      1247.2809      3681.4365      10.816845    
   1625000   304.67162     -218.23331      1314.0319      3820.3033      8.364893     
   1630000   294.77723     -200.40116      1265.8996      3701.5233      7.8235571    
   1635000   306.20075     -213.7182       1267.0439      3791.5045      18.760172    
   1640000   306.18677     -208.81523      1251.5697      3780.8083      8.4449929    
   1645000   297.51908     -206.94255      1289.4259      3743.0269      8.0054374    
   1650000   300.55381     -197.38385      1297.3223      3787.6199      6.5543074    
   1655000   300.51025     -199.64696      1308.7893      3796.4343      11.499633    
   1660000   299.23452     -213.76133      1266.1819      3728.3043      3.8620684    
   1665000   302.25287     -210.00761      1336.9388      3829.8064      9.0252985    
   1670000   303.91794     -201.74786      1300.0924      3816.1095      8.5831145    
   1675000   296.19808     -226.22823      1270.7275      3693.2299      7.0414058    
   1680000   300.21085     -221.82351      1224.5198      3687.3109      9.3366853    
   1685000   305.93225     -212.13777      1274.2691      3797.9091      7.3623147    
   1690000   292.94455     -213.21453      1251.0447      3657.4664      6.2059162    
   1695000   305.2344      -206.82327      1308.2686      3830.9827      7.7835911    
   1700000   292.54116     -210.19553      1291.4799      3697.3132      8.8444662    
   1705000   304.03178     -200.78047      1287.6845      3805.687       9.6774003    
   1710000   300.28838     -196.57833      1275.9214      3764.651       16.206472    
   1715000   295.78103     -193.19152      1278.0044      3729.8141      9.8756923    
   1720000   297.46271     -215.94998      1304.0816      3748.1711      9.09345      
   1725000   303.00357     -217.1375       1308.4365      3800.8873      9.6089422    
   1730000   304.83788     -224.83217      1301.2419      3802.4012      14.978189    
   1735000   296.86325     -212.25547      1230.5008      3672.9242      5.7977052    
   1740000   295.54254     -210.21907      1283.3107      3715.9601      14.286255    
   1745000   303.89911     -203.88112      1293.2015      3806.9169      8.5450797    
   1750000   305.085       -207.02912      1269.3002      3790.4724      11.157081    
   1755000   301.84994     -203.44345      1267.1575      3762.9861      14.255954    
   1760000   304.7285      -203.65516      1261.2801      3782.6382      7.7318025    
   1765000   298.50473     -210.94318      1292.9127      3751.3272      7.480116     
   1770000   302.44468     -203.36611      1264.598       3765.8223      10.156543    
   1775000   299.38275     -208.39407      1260.4552      3729.2705      13.076163    
   1780000   300.9629      -206.6347       1248.9486      3733.6537      9.7114992    
   1785000   293.62118     -203.5873       1278.8682      3700.9678      7.1105993    
   1790000   300.97182     -204.18133      1267.0489      3754.287       6.9458812    
   1795000   305.66581     -212.47542      1294.766       3815.6857      5.0616823    
   1800000   300.71231     -199.57473      1227.8259      3717.35        7.8196695    
   1805000   296.00022     -200.76736      1273.0804      3719.2743      14.211233    
   1810000   296.36618     -200.26337      1309.8964      3759.8669      1.2345988    
   1815000   306.32167     -214.68759      1321.542       3846.1146      8.7337614    
   1820000   296.27668     -208.08965      1266.8039      3708.1477      13.247876    
   1825000   297.51299     -197.67477      1267.2343      3730.0487      13.427714    
   1830000   303.21689     -207.59114      1294.5329      3798.4376      7.3582661    
   1835000   301.75461     -240.37187      1303.031       3761.0786      12.430126    
   1840000   304.2488      -209.41786      1296.9183      3808.2241      3.6833319    
   1845000   298.94533     -218.16018      1251.5203      3706.6578      11.53699     
   1850000   294.46971     -187.84651      1231.38        3676.8082      7.0435442    
   1855000   305.24761     -212.94184      1240.9598      3757.6734      8.0271586    
   1860000   296.02199     -207.15753      1220.1378      3660.1363      11.1987      
   1865000   303.05141     -193.31206      1287.3604      3804.0644      6.652761     
   1870000   303.47718     -206.27175      1299.7705      3807.3222      6.4530388    
   1875000   293.32118     -220.41391      1289.8383      3692.4285      4.846327     
   1880000   297.81557     -199.34926      1268.2667      3732.1124      9.630712     
   1885000   301.81573     -206.91973      1298.1433      3790.1896      9.1674554    
   1890000   296.15787     -221.50099      1264.6722      3691.5423      7.5159407    
   1895000   303.02254     -220.31012      1298.4177      3787.8654      11.897152    
   1900000   299.34228     -204.6386       1273.3773      3745.5861      4.650158     
   1905000   302.72093     -220.18035      1330.8601      3817.7405      6.5978007    
   1910000   306.53691     -198.85981      1277.7538      3820.0789      14.19702     
   1915000   306.2496      -211.81374      1257.0947      3783.8967      11.280049    
   1920000   300.29696     -212.03662      1255.5549      3728.9029      11.038472    
   1925000   303.06302     -223.19406      1253.2063      3740.1321      9.1454745    
   1930000   297.30223     -226.65577      1307.0694      3739.0181      5.8769027    
   1935000   291.54411     -200.33711      1321.8486      3728.6243      5.9560755    
   1940000   300.04949     -222.34075      1248.6681      3709.499       6.0117435    
   1945000   294.21924     -214.05629      1353.349       3770.3277      4.0054298    
   1950000   298.16025     -206.72212      1286.813       3746.3681      5.2547279    
   1955000   303.43529     -193.50444      1287.5037      3807.4482      11.480803    
   1960000   293.63031     -202.65299      1310.5788      3733.6944      6.0169018    
   1965000   302.27197     -194.14339      1269.4548      3778.3575      7.7564615    
   1970000   298.34901     -203.25435      1241.1923      3705.9031      3.876381     
   1975000   302.01882     -192.29567      1268.9292      3777.4158      10.566395    
   1980000   305.45036     -217.38887      1246.7381      3760.8177     -3.8325989    
   1985000   299.20697     -204.77835      1261.4522      3732.3113      5.1031962    
   1990000   303.79344     -203.25917      1277.5159      3790.9084      8.7158963    
   1995000   304.78057     -203.61229      1257.9805      3779.8472      7.23505      
   2000000   303.1373      -194.05817      1232.4317      3749.1577      12.058573    
   2005000   296.50105     -213.8199       1279.4847      3717.1047      10.310541    
   2010000   305.58445     -217.32884      1322.2678      3837.6065      9.610157     
   2015000   292.87053     -215.68692      1300.3221      3703.6095      8.4971757    
   2020000   296.83736     -208.52772      1270.6207      3716.5403      4.6348358    
   2025000   304.15832     -206.23299      1282.4754      3796.157       13.11552     
   2030000   301.26304     -205.81617      1271.179       3759.3866      11.456586    
   2035000   299.60566     -210.50471      1311.9485      3780.6465      6.2932104    
   2040000   301.19272     -212.51315      1255.2738      3736.1555      13.506027    
   2045000   305.04365     -196.04234      1246.6183      3778.4075     -2.8448464    
   2050000   296.3807      -193.5219       1297.47        3754.3118      9.1211033    
   2055000   298.10557     -194.84717      1218.5377      3689.4788      14.099645    
   2060000   306.27905     -207.59407      1281.8589      3813.1438      5.950118     
   2065000   311.65351     -223.57848      1288.478       3851.8393      0.59741484   
   2070000   298.86647     -218.71936      1257.5314      3711.4046      1.4819203    
   2075000   309.74992     -216.36164      1253.1631      3806.7184      17.325807    
   2080000   297.60454     -211.80517      1261.0112      3710.5138      6.4261898    
   2085000   297.54292     -212.27294      1314.1323      3762.6161      11.743354    
   2090000   298.57383     -215.32556      1279.7969      3734.447       4.9742983    
   2095000   295.97897     -208.42049      1271.1001      3709.4509      2.7453366    
   2100000   300.85878     -211.14266      1257.238       3736.5039      11.769077    
   2105000   298.35058     -203.86905      1276.9628      3741.0729      3.207149     
   2110000   299.79328     -213.77731      1270.5863      3737.6894      8.3345334    
   2115000   302.77691     -216.60073      1270.5797      3761.5403      6.3466617    
   2120000   298.16712     -217.60545      1275.6169      3724.3501      4.2778998    
   2125000   302.1863      -211.13545      1240.5717      3731.7162      5.7547201    
   2130000   304.70215     -227.25213      1302.2494      3799.775       7.794567     
   2135000   305.18586     -203.92547      1242.5742      3767.752       9.6689768    
   2140000   294.94752     -214.57821      1341.7864      3764.7558     -0.25004894   
   2145000   300.02548     -208.4562       1267.2186      3741.7193      10.167698    
   2150000   298.36828     -230.13905      1256.0363      3694.0348      12.199312    
   2155000   299.30109     -231.20497      1259.7626      3705.0367      10.635988    
   2160000   299.56832     -206.92525      1326.7878      3798.7313     -2.3040269    
   2165000   298.70469     -222.75394      1289.6485      3738.0404      8.2791727    
   2170000   298.14801     -197.04921      1279.1664      3748.2849      6.6045311    
   2175000   300.67333     -196.33719      1270.0463      3762.4594      12.426854    
   2180000   306.59663     -221.05786      1282.2585      3802.9196      7.8742705    
   2185000   302.62872     -201.34032      1273.6111      3778.5069      0.65489672   
   2190000   292.28408     -204.85913      1312.2805      3721.1513      7.8324514    
   2195000   301.62091     -215.06801      1286.8686      3769.0245      2.6765372    
   2200000   308.39379     -214.77756      1280.8071      3823.8194      7.9842651    
   2205000   304.71539     -210.1198       1274.8         3789.5763      5.3963154    
   2210000   298.3578      -220.11421      1277.6524      3725.5821      11.78579     
   2215000   300.02808     -212.60317      1277.3604      3747.7373      10.646502    
   2220000   303.5935      -221.39849      1306.434       3799.8991      6.4011071    
   2225000   299.18166     -221.62493      1277.817       3731.6032      2.6610148    
   2230000   300.71326     -215.43749      1312.935       3786.6048      6.2321917    
   2235000   300.412       -196.84215      1291.3         3780.8712      9.7162807    
   2240000   296.99495     -226.7755       1244.6833      3673.7645      9.6360841    
   2245000   308.86771     -220.26228      1300.7026      3842.4682      5.4770802    
   2250000   295.03107     -206.04303      1258.2233      3690.475       4.2226768    
   2255000   293.84552     -201.28866      1211.8544      3638.2588      10.75409     
   2260000   296.80486     -203.9355       1328.0132      3778.2345      14.466035    
   2265000   302.23838     -219.28877      1295.8305      3779.2873      2.6464042    
   2270000   303.30555     -194.87703      1251.3234      3768.7351      10.731453    
   2275000   301.93434     -201.95208      1289.0606      3787.1353      6.7666651    
   2280000   292.39839     -202.15245      1335.6584      3748.2581      11.437589    
   2285000   300.75695     -203.08958      1261.9113      3748.3197      8.3973154    
   2290000   299.91265     -220.89466      1223.5882      3684.6415      6.7516236    
   2295000   297.41492     -218.02287      1293.7505      3735.3398      14.574579    
   2300000   306.4603      -186.36987      1295.8086      3849.9385      7.2370103    
   2305000   301.71005     -213.70873      1282.1665      3766.4788      12.810885    
   2310000   293.50576     -202.56682      1244.1302      3666.2182      9.3680839    
   2315000   302.91753     -214.02304      1285.8543      3780.6501      7.3271118    
   2320000   299.50876     -205.82518      1303.3986      3775.9096      14.984352    
   2325000   297.86054     -210.60379      1271.4396      3724.4329      5.8604842    
   2330000   304.02371     -199.46937      1281.972       3801.2134      13.923798    
   2335000   292.99825     -206.62534      1248.4433      3661.9344      10.671119    
   2340000   296.84398     -193.29469      1272.256       3733.4678      7.3199143    
   2345000   302.61844     -203.69758      1312.349       3814.7957      12.6585      
   2350000   306.50182     -192.98301      1237.5372      3785.4253      13.793601    
   2355000   300.32171     -198.96906      1253.7018      3740.3387      7.7209086    
   2360000   296.95554     -224.72888      1244.1568      3674.9322      13.916561    
   2365000   301.50723     -206.55766      1241.267       3730.9166      15.099585    
   2370000   306.44729     -216.10804      1310.3611      3834.6365      4.8102947    
   2375000   300.30053     -214.35786      1304.7113      3775.7699      4.4399928    
   2380000   295.10024     -218.08519      1284.0755      3704.9036      5.2425897    
   2385000   293.08328     -207.75862      1337.3578      3750.476       0.30594205   
   2390000   300.04415     -206.21264      1292.2707      3769.1819      8.4572707    
   2395000   302.75112     -209.09738      1266.7311      3764.9645      10.318239    
   2400000   297.11292     -222.45929      1315.5185      3749.9707      2.7367768    
   2405000   308.03177     -182.58504      1256.7677      3828.7352      4.2349293    
   2410000   289.76214     -217.82564      1282.3294      3655.6814      3.4913488    
   2415000   300.33129     -193.80425      1253.1804      3745.0678      10.700891    
   2420000   300.63112     -215.77099      1304.8054      3777.4072      8.2322176    
   2425000   298.12211     -195.5277       1296.2487      3766.6572      9.3768372    
   2430000   306.31845     -209.97573      1303.938       3833.1936      8.3710282    
   2435000   304.39278     -211.59         1303.3595      3813.7806      2.3525705    
   2440000   290.91232     -221.77628      1236.663       3616.3498      4.9040558    
   2445000   293.38072     -203.69225      1301.6822      3721.5266      1.5012434    
   2450000   301.0367      -219.34118      1278.4288      3751.0874      3.2631937    
   2455000   290.35497     -198.22509      1278.825       3677.079       3.4045109    
   2460000   301.20852     -214.3707       1282.3558      3761.5212      12.872032    
   2465000   301.93647     -210.78076      1276.773       3766.038       7.5298507    
   2470000   304.27281     -206.07924      1283.5941      3798.4532      10.493508    
   2475000   304.70534     -205.50003      1274.8062      3794.1123      13.465628    
   2480000   303.85608     -217.69857      1285.384       3784.8972      6.0377953    
   2485000   304.78056     -229.29824      1315.8031      3811.9838      11.074511    
   2490000   303.01869     -213.27089      1295.6701      3792.1226      3.9746936    
   2495000   303.67269     -221.35112      1262.8035      3757.0242      13.511745    
   2500000   304.73884     -212.73949      1261.5283      3773.8947      10.877798    
   2505000   304.65703     -212.0075       1260.1966      3772.5633      7.0779108    
   2510000   297.14795     -201.54041      1261.0094      3716.6938      2.5874801    
   2515000   301.09337     -193.46542      1281.7655      3780.8065      4.4404144    
   2520000   307.11989     -204.41307      1273.9674      3815.9525      11.223581    
   2525000   308.50648     -196.15077      1277.022       3839.6689      1.9159184    
   2530000   301.44576     -212.98948      1254.7617      3737.4299      8.6590587    
   2535000   295.9118      -198.02585      1293.7119      3741.8566      6.484606     
   2540000   302.49148     -214.62783      1279.9073      3770.2884      5.9260669    
   2545000   304.60271     -200.05897      1300.6058      3824.4353      3.473985     
   2550000   299.09652     -201.50046      1268.1118      3741.2611      11.486984    
   2555000   302.83365     -210.11383      1237.6807      3735.6356      10.610653    
   2560000   305.99423     -200.52149      1271.6758      3807.4863      10.207255    
   2565000   298.89389     -214.2787       1294.1476      3752.7067     -4.270182     
   2570000   292.63446     -202.57762      1310.828       3725.1136      0.73176147   
   2575000   301.77897     -194.44179      1269.7677      3773.9633      17.367443    
   2580000   297.97172     -212.91906      1293.453       3745.1252      6.0333842    
   2585000   297.06216     -211.58459      1286.0101      3730.8831      8.6608743    
   2590000   297.17072     -218.45312      1274.7808      3713.756       2.5725003    
   2595000   305.50255     -200.28049      1293.8783      3825.533       8.9002059    
   2600000   300.01369     -211.70989      1324.0063      3795.1479      12.775021    
   2605000   300.27288     -200.97983      1305.8935      3790.0829      3.8587024    
   2610000   290.16499     -204.73537      1316.8791      3706.9239     -3.2880331    
   2615000   295.5275      -209.12346      1298.7657      3732.3762      7.0697453    
   2620000   298.40293     -212.42689      1281.5257      3737.5462      1.3244084    
   2625000   304.30027     -212.73438      1279.3265      3787.7761      8.1542229    
   2630000   297.99097     -220.00897      1268.7833      3713.5377      8.4440489    
   2635000   298.24458     -219.72958      1256.4381      3703.7398      12.684719    
   2640000   297.36895     -210.15803      1291.236       3740.279       6.8595217    
   2645000   296.61897     -213.39401      1303.1497      3742.2501      11.910862    
   2650000   298.74783     -215.80338      1294.6298      3750.358       1.2824731    
   2655000   303.77241     -200.89376      1304.4395      3820.0093      10.275001    
   2660000   305.79191     -210.77612      1247.7331      3771.4798      9.0673093    
   2665000   305.28773     -200.86841      1232.4304      3761.5762      3.5457201    
   2670000   294.05189     -218.58827      1295.7513      3706.7015      20.207923    
   2675000   300.7906      -210.92308      1313.8141      3792.69        7.9016555    
   2680000   299.99446     -204.13042      1315.7149      3794.264       3.4238097    
   2685000   300.21232     -210.34661      1233.9733      3708.2544      8.7818103    
   2690000   299.83983     -200.25987      1272.732       3753.7688      7.6157498    
   2695000   297.87545     -214.47734      1318.9884      3768.2414      5.3611278    
   2700000   299.42357     -200.67541      1281.4944      3758.3934      6.4007097    
   2705000   297.89512     -198.23841      1291.0718      3756.7397      7.6502891    
   2710000   305.83806     -212.66474      1257.9552      3780.226       2.6458755    
   2715000   295.20641     -198.00223      1327.6766      3769.5371      5.8520073    
   2720000   300.20224     -200.88788      1258.8609      3742.5106      10.541092    
   2725000   296.39082     -229.19888      1295.7058      3716.9611      3.9986267    
   2730000   296.5011      -211.30548      1298.4003      3738.5352      7.3487531    
   2735000   306.92743     -219.90395      1266.2429      3791.016       12.18459     
   2740000   303.06054     -215.62064      1265.8296      3760.3066      6.6663336    
   2745000   301.65305     -216.44253      1259.3718      3740.4406      7.6054542    
   2750000   304.62357     -212.085        1284.9015      3796.8916      10.462117    
   2755000   291.3909      -208.06852      1237.2751      3634.9494      3.933344     
   2760000   298.776       -214.8498       1313.3974      3770.3311      7.3038938    
   2765000   293.7812      -208.6477       1309.8919      3728.3621      1.8544401    
   2770000   301.21733     -204.13977      1291.6955      3781.1707      5.0647485    
   2775000   305.78646     -205.01568      1251.0209      3780.4793      4.5541723    
   2780000   299.54894     -209.95803      1272.7791      3741.5166      10.428807    
   2785000   300.46995     -206.39215      1297.4323      3777.9717      13.027777    
   2790000   304.00478     -208.82887      1338.7436      3848.4562      7.3700847    
   2795000   294.70901     -204.47755      1245.8257      3676.7629      18.088861    
   2800000   306.23192     -214.91179      1278.6132      3802.159       12.142597    
   2805000   296.93505     -216.14562      1289.1124      3728.2878      6.4907973    
   2810000   304.8256      -226.50952      1268.0487      3767.4208      12.905073    
   2815000   298.92781     -209.11892      1280.3029      3744.325       4.9812473    
   2820000   302.27376     -209.14888      1303.3352      3797.2483      10.067343    
   2825000   305.28303     -199.22986      1265.263       3796.0053      18.291555    
   2830000   304.45356     -190.89943      1278.8801      3810.5354      8.6125743    
   2835000   300.2709      -202.90578      1254.8971      3737.1428      5.6659812    
   2840000   300.42686     -197.24537      1233.5324      3722.8332      4.4844738    
   2845000   296.8684      -222.31142      1238.9844      3671.398       6.1160974    
   2850000   301.28445     -215.20769      1310.6871      3789.6946      9.7626047    
   2855000   302.43906     -202.82953      1331.4817      3833.1924      8.8002626    
   2860000   299.26242     -219.44492      1274.5858      3731.2741      10.840693    
   2865000   303.07373     -203.34184      1272.7946      3779.6684      3.2803324    
   2870000   295.51322     -206.95223      1267.0082      3702.6623      8.9509895    
   2875000   294.7508      -196.57414      1291.1429      3730.3572      8.9213826    
   2880000   291.86976     -200.23863      1268.3093      3678.0956      6.4511296    
   2885000   304.73106     -217.11397      1301.4628      3809.385       7.1843501    
   2890000   296.37635     -188.74699      1263.5235      3725.1014      7.4018399    
   2895000   296.8598      -203.68731      1302.2719      3753.2326      5.5683561    
   2900000   308.86947     -214.5991       1247.7048      3795.1494      17.624048    
   2905000   300.98385     -211.15493      1284.1609      3764.533       6.4414477    
   2910000   296.6161      -202.40411      1292.1685      3742.2332      4.0922696    
   2915000   293.8328      -202.90163      1322.2225      3746.9002      9.9090704    
   2920000   300.69499     -203.6614       1256.5705      3741.8531      1.7485489    
   2925000   305.86639     -200.18542      1267.1408      3802.1442      19.917371    
   2930000   295.17389     -218.12712      1371.1251      3792.5698      3.3777681    
   2935000   293.87362     -228.10536      1281.4068      3681.2458      9.4089891    
   2940000   308.91415     -188.42896      1283.2689      3857.2832      4.6131067    
   2945000   304.00732     -206.84222      1245.6842      3757.4062      9.5746487    
   2950000   296.13146     -239.30918      1291.9392      3700.7649      7.86398      
   2955000   297.1723      -209.31416      1250.0785      3698.2069      11.836593    
   2960000   290.19842     -214.56828      1234.4698      3614.9807     -1.9709449    
   2965000   299.92368     -227.61995      1309.6018      3764.0284      13.324937    
   2970000   302.01611     -230.82732      1271.8437      3741.7744      10.255019    
   2975000   299.69328     -222.94733      1325.3979      3782.4368      12.539568    
   2980000   305.93674     -213.63843      1281.5782      3803.7577      1.8461461    
   2985000   304.98961     -205.74687      1273.9283      3795.5298      8.8406557    
   2990000   300.36598     -189.68941      1303.6873      3799.9996      2.3392426    
   2995000   292.7694      -211.83057      1294.2959      3700.5352      6.87455      
   3000000   288.00486     -210.55726      1291.8638      3656.7699      3.0513134    
   3005000   304.11235     -204.20079      1253.8729      3769.1756      7.3750772    
   3010000   296.66029     -212.5208       1257.3138      3697.6569      5.3500178    
   3015000   302.56168     -194.68825      1283.3877      3794.3361      3.9087679    
   3020000   304.3647      -203.33286      1264.5994      3783.0267      7.8859119    
   3025000   299.13996     -199.13167      1264.3165      3740.223       7.9177561    
   3030000   298.1711      -212.0669       1238.4161      3692.7234      12.347623    
   3035000   296.73039     -225.40626      1244.8691      3672.9536      5.4519426    
   3040000   305.50064     -218.41027      1313.9378      3827.4457      1.9405733    
   3045000   301.30503     -198.22076      1317.4391      3813.6175      10.127197    
   3050000   304.60877     -207.18613      1261.1751      3777.9317      6.2488063    
   3055000   306.93593     -198.78603      1282.2168      3828.1839      4.2483484    
   3060000   303.26162     -213.1245       1283.2164      3781.9877      4.3705182    
   3065000   301.24861     -195.00104      1258.3236      3757.2171      4.6462873    
   3070000   293.99708     -198.61464      1242.6169      3673.0506      7.5507607    
   3075000   303.483       -200.11967      1298.6272      3812.383       7.4614721    
   3080000   299.44656     -198.6866       1276.7951      3755.8884      1.7167866    
   3085000   299.09703     -219.0929       1265.9674      3721.5288      7.7399017    
   3090000   293.12699     -197.86197      1281.1197      3704.5253      4.9458825    
   3095000   310.65692     -213.28127      1299.4253      3864.1718      9.7316359    
   3100000   299.49005     -220.44562      1261.8849      3719.6082      5.7732964    
   3105000   298.82477     -213.07955      1298.096       3757.2361      9.5751338    
   3110000   304.60604     -211.88425      1320.3204      3832.3544      18.799016    
   3115000   298.30017     -204.03512      1229.2819      3692.7753      9.6970571    
   3120000   299.67273     -235.39136      1274.6538      3719.0649      5.8886769    
   3125000   305.70809     -201.57857      1301.2236      3833.4183      14.28747     
   3130000   298.40428     -190.57245      1282.8812      3760.7681      7.1563131    
   3135000   295.96306     -210.49317      1245.1831      3681.319       6.256097     
   3140000   299.51301     -229.73399      1270.2657      3718.9059      6.4523193    
   3145000   299.89348     -210.82332      1311.639       3782.5922     -4.0994436    
   3150000   297.21711     -199.55342      1223.7196      3682.0094      10.489308    
   3155000   296.27026     -192.37475      1312.7897      3769.7911      7.3989601    
   3160000   297.44115     -214.67344      1257.8641      3703.0374      6.7007174    
   3165000   304.72077     -197.73415      1287.966       3815.176       17.242029    
   3170000   296.68179     -200.70521      1266.8324      3719.1834      6.9965069    
   3175000   303.2226      -204.69151      1280.5723      3787.4277      3.9440584    
   3180000   298.25596     -202.42883      1297.9321      3762.6364      5.0656862    
   3185000   309.17258     -207.79238      1322.9597      3879.9215      3.7550501    
   3190000   304.45923     -217.91147      1298.1862      3802.8801      12.842025    
   3195000   304.6868      -215.3452       1296.2524      3805.5477      10.970742    
   3200000   295.7139      -203.57463      1272.2217      3713.0479      8.6352962    
   3205000   295.38074     -223.93606      1281.6632      3699.1488      2.2348101    
   3210000   302.90929     -199.7171       1290.3903      3799.4184      7.9697968    
   3215000   301.55395     -225.0769       1338.4081      3809.9563      7.9462271    
   3220000   297.18752     -219.16797      1283.5828      3721.9934      7.4585456    
   3225000   296.07883     -212.25157      1274.3575      3709.7702      6.1790839    
   3230000   301.35794     -209.08972      1252.4906      3738.2732      12.936751    
   3235000   306.36498     -225.72027      1258.6474      3772.5747      17.891128    
   3240000   300.16843     -213.1599       1292.7624      3763.8378      9.573415     
   3245000   301.34084     -228.64057      1279.5534      3745.6322      6.9941588    
   3250000   304.57215     -214.77283      1297.6906      3806.5329      5.482804     
   3255000   301.33781     -212.88403      1258.9423      3740.7506      8.8222706    
   3260000   304.90332     -211.86129      1264.188       3778.9034      10.137571    
   3265000   288.92989     -195.90552      1256.7846      3644.6144      6.111284     
   3270000   303.6977      -208.76541      1322.0465      3829.0766      9.4423158    
   3275000   310.23584     -203.24845      1294.4712      3865.4851      7.1267527    
   3280000   299.81864     -200.87859      1264.451       3744.6797      7.5226216    
   3285000   305.88255     -214.85501      1250.7888      3771.2671      9.1902254    
   3290000   301.74946     -197.72339      1299.3442      3799.9943      16.492881    
   3295000   299.33071     -192.45747      1275.7914      3760.078       12.565081    
   3300000   293.46576     -217.30511      1266.4859      3673.4778     -2.0829219    
   3305000   295.25035     -214.36383      1270.3794      3696.2712      8.8850051    
   3310000   295.53632     -214.87937      1321.5206      3749.4541      10.593078    
   3315000   297.70355     -209.53246      1301.2         3753.8608      12.217709    
   3320000   294.17108     -212.32836      1265.6675      3683.9435      6.78194      
   3325000   303.87842     -215.71043      1270.7118      3772.4129      13.5547      
   3330000   299.73274     -208.74414      1305.0843      3776.6792      8.5868602    
   3335000   294.92521     -212.03014      1302.412       3727.73        2.7227575    
   3340000   295.5106      -209.49272      1219.4536      3652.5438      4.8767992    
   3345000   300.54231     -204.21461      1298.9478      3782.3119      3.9398576    
   3350000   301.10169     -204.4382       1264.8499      3752.9926      4.8031753    
   3355000   293.81565     -197.39409      1268.1203      3698.1521      4.6833635    
   3360000   298.31986     -214.31411      1267.4197      3720.8102      12.176382    
   3365000   299.50512     -211.40721      1266.0883      3732.9847      5.0068051    
   3370000   294.93932     -222.29597      1289.6565      3704.8347      4.4163077    
   3375000   299.15876     -201.47579      1268.3891      3742.1196      9.1049832    
   3380000   298.73705     -193.7785       1303.577       3781.2337      9.3217853    
   3385000   300.24741     -219.76517      1292.8949      3758.0713      11.142968    
   3390000   296.83106     -213.47342      1232.7966      3673.7142      7.3443459    
   3395000   296.67228     -196.84685      1312.8403      3768.9646      12.642493    
   3400000   298.72893     -201.2975       1275.421       3745.486       7.2212832    
   3405000   309.26752     -212.25959      1281.5113      3834.8549      15.682324    
   3410000   292.48521     -210.9161       1284.7789      3689.3913      4.7482067    
   3415000   295.30122     -213.2463       1299.0703      3726.5346      4.1894134    
   3420000   303.0234      -208.08928      1318.8653      3820.5416      5.7691635    
   3425000   303.10647     -221.52745      1286.0563      3775.0373      10.281662    
   3430000   297.56327     -218.91086      1288.8063      3730.8342      4.6388628    
   3435000   308.08339     -204.97168      1257.9674      3808.0099      7.9248185    
   3440000   309.60167     -216.96137      1217.3492      3768.9791      8.0458675    
   3445000   305.01695     -213.93711      1311.9622      3825.6179      4.6836162    
   3450000   294.27876     -219.29762      1321.0231      3733.2928      9.833241     
   3455000   299.13427     -219.80213      1313.3293      3768.5145      3.2752289    
   3460000   288.89906     -198.78442      1250.9401      3635.6154      12.672929    
   3465000   304.41705     -210.61523      1238.9967      3750.6097      8.965248     
   3470000   305.22723     -214.63519      1255.4251      3770.2631      2.4611114    
   3475000   304.03498     -190.17693      1242.709       3771.3436      10.952318    
   3480000   304.96671     -198.71353      1283.3831      3811.8131      4.696828     
   3485000   298.04127     -202.2628       1256.699       3719.6495      3.8085036    
   3490000   302.42071     -201.81909      1274.4378      3776.9948      10.848976    
   3495000   297.81665     -202.91285      1288.2857      3748.5775      11.545335    
   3500000   295.48331     -208.96519      1196.0545      3629.4281      4.938054     
   3505000   307.92728     -202.48918      1305.4096      3856.5387      6.9914138    
   3510000   295.10003     -203.99926      1324.3152      3759.2273      3.003833     
   3515000   296.30122     -203.91797      1288.6312      3734.3662      5.9346469    
   3520000   301.72668     -206.7712       1255.504       3746.9026      3.5387357    
   3525000   298.91415     -198.83158      1261.5297      3735.7171      8.9896708    
   3530000   302.97571     -203.76074      1285.5221      3791.1005      10.287661    
   3535000   301.55044     -212.61972      1283.1935      3767.1675      11.330299    
   3540000   302.00048     -196.82385      1297.297       3801.0913      9.0430528    
   3545000   299.7472      -217.00822      1267.0818      3730.542       9.5593255    
   3550000   299.54758     -221.46575      1302.2918      3759.5094      4.0639817    
   3555000   299.49407     -203.10759      1308.5676      3783.6648      5.7773657    
   3560000   300.22833     -203.07594      1288.1375      3769.8325      12.892788    
   3565000   298.82213     -209.07801      1250.781       3713.899       10.116018    
   3570000   294.70509     -204.86981      1272.153       3702.6629      11.946471    
   3575000   300.30063     -203.39839      1264.2279      3746.247       12.799766    
   3580000   293.50373     -210.47578      1253.0084      3667.1693      15.463449    
   3585000   302.48142     -211.55711      1271.9342      3765.2961      12.968194    
   3590000   300.1452      -207.37624      1342.6161      3819.2674      1.4937327    
   3595000   293.82048     -209.36943      1297.4734      3715.573       5.3043098    
   3600000   304.21988     -206.70063      1297.8096      3811.574       14.864309    
   3605000   300.69072     -208.02676      1270.1625      3751.0415      8.6953918    
   3610000   289.46468     -208.2776       1293.6218      3673.8619      4.9974901    
   3615000   297.73615     -210.35587      1311.1261      3763.255      -1.7709525    
   3620000   301.57464     -211.87192      1305.6476      3790.5859     -0.29850329   
   3625000   295.13217     -202.61953      1320.2629      3756.8421      1.4459958    
   3630000   299.76446     -221.74393      1291.3015      3750.1803      2.6408595    
   3635000   296.29941     -228.2165       1277.3962      3698.8164      13.224213    
   3640000   305.49379     -212.00736      1271.0711      3790.9206      10.150483    
   3645000   299.03732     -216.36212      1290.5322      3748.2904      12.036085    
   3650000   304.53213     -228.3853       1304.6361      3799.508       9.1659395    
   3655000   299.85087     -217.48353      1290.7317      3754.6437      10.862018    
   3660000   305.3143      -204.13509      1231.7709      3757.8876      5.3586122    
   3665000   303.05926     -205.3351       1307.9099      3812.6611      7.5508366    
   3670000   297.82103     -222.51976      1258.7118      3699.4358      4.3119031    
   3675000   298.18189     -208.09603      1305.3383      3763.713       7.5468629    
   3680000   301.37293     -205.39726      1288.7331      3778.3422      3.1794582    
   3685000   303.48769     -214.41411      1307.3129      3806.8162      4.1688377    
   3690000   299.55693     -224.2374       1298.6864      3753.216       0.43739314   
   3695000   294.95152     -219.70177      1260.4279      3678.3095      12.649875    
   3700000   301.19982     -203.08189      1298.3865      3788.7629      12.49603     
   3705000   305.7153      -210.08077      1288.4158      3812.1728      6.981002     
   3710000   299.12457     -181.56425      1303.3968      3796.7332      9.2224308    
   3715000   302.25517     -209.20553      1304.0206      3797.7108      8.6988056    
   3720000   296.41797     -208.79163      1285.1478      3727.0532      7.6729478    
   3725000   306.02733     -207.49527      1278.5388      3807.6716      11.119933    
   3730000   295.71615     -194.31896      1282.6315      3732.7335      8.4577799    
   3735000   301.28815     -194.19821      1297.306       3797.356       10.97421     
   3740000   297.82949     -217.13981      1280.9802      3727.1598      5.2541277    
   3745000   301.76184     -215.02835      1253.4801      3736.936       7.935653     
   3750000   296.80003     -208.6629       1260.8523      3706.3029      11.603807    
   3755000   301.79088     -195.84351      1251.3255      3754.2259      5.0202408    
   3760000   300.59177     -196.94527      1316.6107      3807.6863      1.3667337    
   3765000   303.46064     -187.98627      1295.9112      3821.6005      1.0071752    
   3770000   302.22412     -212.0438       1284.5547      3775.129       9.1438763    
   3775000   301.68327     -228.52896      1316.395       3785.6476      1.4119972    
   3780000   309.94609     -204.90468      1315.9839      3882.7505      5.4808475    
   3785000   298.84766     -215.04826      1321.0013      3778.3774      9.9953868    
   3790000   294.63638     -206.15145      1281.7845      3710.3984      10.172063    
   3795000   300.63867     -199.4713       1277.0123      3765.9813      8.7294541    
   3800000   290.34812     -207.16983      1282.7876      3672.0356      5.6471894    
   3805000   293.26788     -192.98722      1254.1835      3683.7238      7.5282444    
   3810000   300.17091     -221.13371      1321.1553      3784.279       10.596936    
   3815000   303.70333     -183.27153      1275.1029      3807.6771      11.223831    
   3820000   301.70089     -214.22959      1293.5571      3777.2666      9.9280248    
   3825000   294.07199     -197.92454      1263.0327      3694.8264      5.3267412    
   3830000   297.14399     -211.77462      1292.4044      3737.8191      4.884609     
   3835000   299.74949     -212.64772      1276.7123      3744.5535      2.2695268    
   3840000   292.86086     -213.33105      1345.6459      3751.2027      4.9749577    
   3845000   302.69906     -203.34924      1273.7127      3777.2287      11.246431    
   3850000   301.7283      -203.74006      1286.2613      3780.7055      3.2206486    
   3855000   296.51101     -205.7743       1266.4885      3712.2432      9.2839524    
   3860000   304.21675     -211.22863      1288.3506      3797.559       5.0362142    
   3865000   302.51904     -206.28529      1302.5476      3801.5177      5.8652546    
   3870000   295.52048     -199.74548      1247.9827      3690.9085      9.6677049    
   3875000   296.45096     -214.40526      1276.9013      3713.488       12.022794    
   3880000   297.81273     -210.89383      1302.2013      3754.477       11.482128    
   3885000   297.75515     -218.45894      1279.1218      3723.3175      13.282664    
   3890000   302.15818     -199.89264      1265.9157      3768.0515      8.4243562    
   3895000   304.43928     -199.19136      1330.1809      3853.4165      10.52946     
   3900000   298.73234     -211.62459      1310.7776      3770.546       7.2400189    
   3905000   303.57753     -203.79436      1286.4817      3797.4082      6.4074115    
   3910000   299.32342     -218.18115      1298.8434      3757.341       5.2342248    
   3915000   303.85271     -203.03598      1315.3992      3829.5449      14.059934    
   3920000   295.45684     -210.86886      1295.0256      3726.2589      10.668678    
   3925000   299.43037     -205.10377      1312.3675      3784.8989      9.3038365    
   3930000   307.20581     -217.6925       1321.7995      3851.2735      3.9433509    
   3935000   298.05439     -206.9009       1288.7464      3747.1761      5.006329     
   3940000   311.58472     -206.53449      1318.2373      3898.0274      12.205485    
   3945000   297.29856     -218.31438      1249.052       3689.3092      10.728056    
   3950000   303.61746     -217.56358      1285.6371      3783.1515      8.4635344    
   3955000   293.22947     -197.84832      1300.6893      3725.025       2.8106108    
   3960000   299.32215     -210.45006      1260.6363      3726.8536      5.0428384    
   3965000   299.19024     -211.09691      1271.124       3735.5149      8.1787909    
   3970000   302.7551      -221.72933      1290.8014      3776.4383      10.210718    
   3975000   306.94805     -232.40692      1270.1876      3782.6423      6.3371287    
   3980000   302.43288     -200.83239      1273.3087      3776.9612      2.0732289    
   3985000   293.31477     -213.82923      1278.1345      3687.2521      5.432698     
   3990000   298.84286     -221.53773      1287.5449      3738.3885      9.3573516    
   3995000   297.74058     -218.78278      1303.8571      3747.5986      13.634278    
   4000000   297.85643     -221.08156      1276.2603      3718.7391      8.7811278    
   4005000   303.49417     -209.07313      1301.3924      3806.2947      11.311227    
   4010000   298.48307     -223.0747       1250.7332      3696.8225      2.3565957    
   4015000   300.02992     -206.53761      1301.8591      3778.318       10.927288    
   4020000   293.91548     -209.71562      1278.965       3697.568       8.7134912    
   4025000   295.59928     -208.95519      1253.2978      3687.7185      6.0571516    
   4030000   300.16835     -208.13068      1293.2386      3769.3424      9.366472     
   4035000   295.88997     -216.81362      1238.3312      3667.493       15.28067     
   4040000   296.95188     -209.82565      1287.4765      3733.1224      9.7808513    
   4045000   292.23676     -188.13362      1257.5564      3682.7296      8.0528031    
   4050000   303.12477     -197.5321       1260.4096      3773.5496      2.4179767    
   4055000   305.73056     -210.85228      1262.9471      3786.069       4.359096     
   4060000   304.57485     -200.21744      1273.2382      3796.6601      3.7264417    
   4065000   294.02109     -199.54273      1241.3434      3671.0637      8.3594764    
   4070000   307.26394     -206.85954      1283.2486      3824.0755      0.72095743   
   4075000   306.18737     -215.23377      1287.3499      3810.1753      8.1130974    
   4080000   301.06053     -197.33572      1300.5482      3795.4253      8.5223716    
   4085000   293.37795     -196.84833      1217.8114      3644.4749      2.4194831    
   4090000   299.75988     -187.77082      1343.7677      3836.5786      8.793357     
   4095000   299.70009     -200.59351      1268.2964      3747.75        6.0198184    
   4100000   295.12578     -209.84126      1293.3148      3722.6152      3.5963929    
   4105000   298.16107     -200.79225      1274.7639      3740.2563      4.0830147    
   4110000   302.38964     -216.88187      1275.9366      3763.153      -1.1064739    
   4115000   299.33294     -185.11173      1275.242       3766.8942      2.6532076    
   4120000   299.5947      -198.27056      1256.6022      3737.4363      11.299886    
   4125000   300.13875     -210.08015      1274.0368      3747.9264     -0.088082607  
   4130000   299.84694     -220.07517      1300.5071      3761.7923      13.213421    
   4135000   298.09218     -197.33864      1295.1613      3763.4912      13.564336    
   4140000   302.90333     -214.99         1279.7787      3773.4806      9.1225513    
   4145000   298.64682     -207.05438      1317.4081      3780.9821      10.89507     
   4150000   303.49547     -211.64928      1256.3406      3758.6784      7.0914338    
   4155000   295.54511     -213.33714      1321.8344      3751.3887      3.2096508    
   4160000   306.32624     -217.26302      1240.3805      3762.4184      8.9779659    
   4165000   301.08386     -205.94655      1289.3605      3775.8353      4.9528819    
   4170000   294.45098     -212.32633      1293.4399      3714.2209      12.280382    
   4175000   300.71181     -227.06941      1298.8444      3760.8694      5.240938     
   4180000   296.37838     -216.65929      1235.809       3669.4927      13.821518    
   4185000   308.5624      -218.26672      1234.0762      3775.1072      14.610841    
   4190000   306.1023      -228.72762      1287.0976      3795.6683      14.48281     
   4195000   304.62988     -217.23941      1245.1647      3752.0567      12.336745    
   4200000   306.0401      -216.78165      1272.7229      3792.6835      3.6256449    
   4205000   301.89407     -227.79012      1269.0026      3740.8791      7.9101077    
   4210000   304.94661     -204.20899      1283.7386      3806.4933      7.6172501    
   4215000   296.06461     -211.38448      1301.3418      3737.4944      2.206029     
   4220000   293.32688     -199.39297      1304.2739      3727.9361      5.6392029    
   4225000   310.13621     -211.93671      1245.7189      3807.1536      9.4008095    
   4230000   291.85312     -215.64967      1282.8159      3677.0424      7.1295645    
   4235000   301.35428     -219.64362      1250.6648      3725.8608      1.786462     
   4240000   299.4864      -214.30364      1316.1579      3779.9904      6.0972039    
   4245000   293.9045      -223.83149      1276.3685      3680.7575      8.835701     
   4250000   303.80762     -212.0104       1282.5262      3787.2942      5.1221093    
   4255000   303.60387     -227.57731      1288.225       3775.6041      10.333555    
   4260000   305.02274     -222.25742      1325.3328      3830.7199      5.0287198    
   4265000   299.76457     -211.27396      1243.8182      3713.168       4.5044297    
   4270000   297.70582     -212.10396      1287.7927      3737.9023      6.2328116    
   4275000   299.15961     -194.28673      1256.0327      3736.9599      13.495678    
   4280000   298.79963     -197.58117      1294.3103      3768.724       4.8091112    
   4285000   296.64211     -203.32512      1205.8471      3655.2234      8.802168     
   4290000   301.17842     -207.92359      1276.333       3761.6764     -0.48677867   
   4295000   297.45216     -219.97995      1321.5847      3761.5499      4.6416002    
   4300000   298.89426     -215.27561      1246.6859      3704.2513      8.8599014    
   4305000   290.48252     -212.33677      1273.5848      3658.8677      7.708134     
   4310000   298.1804      -203.97413      1309.6564      3772.1397      8.386198     
   4315000   298.97676     -196.37531      1300.4337      3777.6372      6.2178188    
   4320000   300.80832     -222.41962      1335.0524      3802.5901      3.3606651    
   4325000   298.25835     -218.33382      1299.4437      3748.2644      6.4714735    
   4330000   303.04867     -224.34704      1267.4375      3753.082       0.14415401   
   4335000   304.80599     -215.27226      1244.7492      3755.1832      3.0255566    
   4340000   300.30491     -202.15211      1272.132       3755.4356      4.3582144    
   4345000   301.70654     -221.41382      1306.752       3783.3279      8.2055264    
   4350000   290.66643     -194.71884      1291.0587      3695.6041      5.7186891    
   4355000   298.61842     -209.75706      1261.1986      3721.816       5.6910991    
   4360000   296.17774     -191.0688       1234.5909      3692.0709      4.2153222    
   4365000   307.69265     -213.16381      1321.1977      3859.5539      2.5422829    
   4370000   303.6633      -219.66864      1255.6308      3751.45        3.3202672    
   4375000   307.30301     -214.01451      1299.2339      3833.2552      5.7893574    
   4380000   305.08434     -190.46662      1278.5398      3816.2686      7.1205992    
   4385000   293.60884     -216.7253       1293.8454      3702.6966      9.6109643    
   4390000   296.26732     -206.9561       1248.3739      3690.7675      11.909116    
   4395000   292.12191     -209.04167      1260.2856      3663.5238      15.003314    
   4400000   311.14059     -218.39638      1287.8619      3851.8185      2.6668146    
   4405000   301.39265     -208.62186      1231.4881      3718.049       5.4146377    
   4410000   304.50129     -218.02635      1245.4723      3750.4274      9.1296208    
   4415000   306.59897     -207.43507      1228.7111      3763.0159      9.2797398    
   4420000   304.28543     -199.10089      1279.9098      3801.8601      6.8574542    
   4425000   303.95183     -198.43789      1288.6982      3808.3283      11.684377    
   4430000   303.14485     -201.91872      1265.864       3774.797       7.7948256    
   4435000   297.62591     -199.66505      1243.6784      3705.5123      10.276996    
   4440000   301.09844     -204.16653      1288.2232      3776.6084      11.750944    
   4445000   297.47106     -205.94747      1271.9235      3726.0902      9.2948561    
   4450000   302.26786     -215.65989      1281.9178      3769.2671      12.243342    
   4455000   301.97734     -208.72176      1274.8791      3766.5687      7.4402956    
   4460000   303.74498     -223.69032      1257.4458      3749.9737      11.451761    
   4465000   296.61071     -226.37144      1283.9077      3709.9568      6.4481358    
   4470000   299.69809     -203.97044      1306.5984      3782.6572     -2.0424657    
   4475000   296.06337     -193.98857      1269.3423      3722.8798      13.982282    
   4480000   299.41239     -197.40877      1293.0559      3773.1216      12.697952    
   4485000   301.04819     -213.81305      1318.9636      3797.253       8.150413     
   4490000   303.03818     -206.24763      1259.288       3762.9381      13.033539    
   4495000   301.44391     -204.64879      1325.7372      3816.7295      8.2104055    
   4500000   300.69457     -209.43788      1277.8623      3757.3647      9.7818084    
   4505000   294.15436     -217.49506      1322.3016      3735.2614      13.337722    
   4510000   308.11718     -223.90631      1297.8474      3829.2575      5.4262076    
   4515000   302.12019     -212.04985      1317.4061      3807.045       3.3809481    
   4520000   297.51726     -206.52692      1304.0994      3758.0998      14.253448    
   4525000   302.236       -206.20646      1260.1976      3756.7154      4.2217279    
   4530000   292.53034     -210.30565      1322.2917      3727.9182      9.0273785    
   4535000   305.82255     -191.06076      1283.9201      3827.6561      14.555481    
   4540000   298.47289     -204.35982      1284.5064      3749.2196      13.607751    
   4545000   301.9525      -221.9645       1279.3517      3757.5763      3.73312      
   4550000   297.42401     -218.4412       1302.4243      3743.6766      7.0374072    
   4555000   299.70941     -208.71591      1313.7291      3785.1436     -0.08310813   
   4560000   304.77147     -214.23198      1319.6573      3830.8229      2.2776061    
   4565000   300.21308     -196.54444      1328.9956      3817.0857      1.8901614    
   4570000   292.37016     -205.67821      1261.6804      3670.5019      7.62449      
   4575000   298.07554     -209.2574       1272.3926      3728.6549      10.200567    
   4580000   303.98878     -211.10126      1346.3181      3853.6153      3.0177411    
   4585000   294.38359     -198.23869      1268.2583      3702.5243      12.27145     
   4590000   295.23193     -204.8815       1288.3867      3723.5961      16.490613    
   4595000   289.86238     -205.22328      1248.7594      3635.6101      1.8452766    
   4600000   301.74952     -222.88711      1253.956       3729.443       11.56673     
   4605000   309.83391     -216.89803      1252.1436      3805.9136      11.863031    
   4610000   299.6018      -200.92677      1273.0262      3751.2676      9.8055071    
   4615000   305.01808     -191.43264      1294.4885      3830.6588      5.7480009    
   4620000   298.72696     -224.68615      1250.0915      3696.7503      9.2320159    
   4625000   292.23251     -211.76027      1266.5241      3668.0326      4.1992441    
   4630000   293.06831     -213.2175       1323.3587      3730.8842      0.9269795    
   4635000   303.73945     -208.8488       1262.1662      3769.4862      3.9212416    
   4640000   299.12676     -210.48683      1285.3117      3749.7451      17.352899    
   4645000   300.15685     -228.43709      1236.7659      3692.4605      3.9580891    
   4650000   301.73238     -213.33738      1292.7763      3777.6597      9.2470682    
   4655000   302.60623     -221.85882      1252.5602      3736.7364      4.2315306    
   4660000   306.33104     -211.73348      1276.4134      3804.0238      11.296524    
   4665000   298.07589     -223.83006      1279.7901      3721.4829      14.676743    
   4670000   306.82013     -225.33316      1303.1636      3821.548       11.682216    
   4675000   303.26911     -208.79394      1288.1662      3791.3351      9.8408083    
   4680000   298.1642      -210.11505      1257.2829      3713.4804      11.784196    
   4685000   305.22818     -202.80611      1286.9149      3813.5905      9.6088868    
   4690000   300.6321      -200.06354      1316.6549      3804.9729      15.377413    
   4695000   291.10987     -200.35196      1366.4416      3769.3193      10.801664    
   4700000   307.60264     -196.1319       1308.2289      3862.8122      6.359385     
   4705000   303.1428      -181.95722      1268.4862      3797.3623      10.592529    
   4710000   295.68173     -200.26138      1273.5034      3717.3553      6.8673175    
   4715000   300.07872     -182.68982      1306.6949      3807.4381      7.9181041    
   4720000   302.86136     -211.54686      1261.8826      3758.6523      9.1360348    
   4725000   300.24746     -191.31151      1276.4601      3770.0905      14.097978    
   4730000   294.99611     -219.09394      1299.8611      3718.7493      4.627063     
   4735000   298.36258     -200.90649      1246.5921      3713.7721      6.1124482    
   4740000   301.46342     -210.22857      1274.0117      3759.5986      3.9190345    
   4745000   301.68144     -203.75208      1237.0552      3731.0684      8.8811775    
   4750000   297.81391     -208.91762      1273.1089      3727.3714      6.7973482    
   4755000   297.7967      -195.68521      1265.2291      3732.5701      2.5248028    
   4760000   298.86124     -195.4696       1298.2508      3775.327       11.425893    
   4765000   301.44808     -203.43039      1251.8576      3744.1056      12.717683    
   4770000   296.69683     -204.57057      1270.7058      3719.3259      6.329897     
   4775000   303.83219     -216.55144      1242.683       3743.1297      12.353717    
   4780000   306.22623     -208.23075      1270.7904      3800.9663      7.5593238    
   4785000   297.47748     -219.38403      1336.7152      3777.5028      1.2347294    
   4790000   306.39013     -194.89593      1255.3632      3800.3397      4.6043258    
   4795000   307.20185     -207.71859      1280.6001      3820.0126      5.1659925    
   4800000   300.26797     -223.5185       1273.3068      3734.9137      9.2756027    
   4805000   303.37195     -201.39509      1294.2522      3805.7396      13.734557    
   4810000   300.21969     -212.41207      1247.3838      3719.6653      11.046908    
   4815000   296.08146     -218.76902      1238.7068      3667.6255      8.3860248    
   4820000   304.02707     -196.74428      1259.3585      3781.3551      5.4915016    
   4825000   303.65811     -192.15898      1297.5322      3820.8146      7.9651598    
   4830000   295.82908     -200.52983      1273.8984      3718.7994      6.5711509    
   4835000   306.84144     -203.91478      1264.6833      3804.6767      2.8686499    
   4840000   294.8         -198.50073      1269.836       3707.5637      5.1483395    
   4845000   300.27822     -222.78313      1315.0496      3777.4835      6.3846999    
   4850000   291.90407     -206.97173      1264.7438      3668.1039      6.7740258    
   4855000   291.33173     -209.97261      1309.0854      3704.3264      8.161844     
   4860000   300.51106     -203.34169      1265.0946      3749.0521      4.1359127    
   4865000   298.72605     -216.51061      1274.7867      3729.6129      7.4653734    
   4870000   301.20061     -196.8817       1280.642       3777.2258      13.045647    
   4875000   296.8358      -201.73823      1273.899       3726.5942      11.205678    
   4880000   294.32833     -215.55916      1272.1973      3688.6487      4.1743598    
   4885000   294.04799     -200.68756      1247.2467      3676.0628      13.070147    
   4890000   303.41607     -193.93157      1296.0876      3815.433       10.250224    
   4895000   296.43252     -200.4091       1317.1629      3767.5809      5.1276488    
   4900000   303.98314     -219.05265      1292.5972      3791.8925      3.6524527    
   4905000   308.69035     -210.32775      1282.8563      3832.9704      11.263049    
   4910000   299.91394     -201.37361      1290.7497      3771.3356      10.738163    
   4915000   305.34228     -209.8495       1294.6445      3815.297       4.3509326    
   4920000   302.19394     -212.53198      1248.8573      3738.6734      8.500146     
   4925000   305.3649      -213.85848      1275.8534      3792.6993      14.652567    
   4930000   296.99287     -234.6119       1307.4161      3728.6422      11.827421    
   4935000   298.82726     -229.67098      1272.5663      3715.1372      12.609962    
   4940000   294.36099     -222.73442      1260.9768      3670.5449      2.621961     
   4945000   301.47264     -211.9065       1326.6654      3810.6569      1.938406     
   4950000   299.4997      -212.82539      1296.1574      3761.5871      12.47043     
   4955000   304.52772     -202.08937      1296.1124      3817.2409      9.6147332    
   4960000   298.63046     -218.10544      1240.6416      3693.0182      8.8950943    
   4965000   297.63042     -207.69812      1265.3897      3719.2308      4.2610507    
   4970000   297.8419      -199.41689      1286.3958      3750.4092      3.9435264    
   4975000   295.78778     -233.13894      1291.8764      3703.7991      3.0227057    
   4980000   301.54684     -218.30958      1317.0273      3795.2792      3.9330166    
   4985000   297.50218     -213.4878       1305.866       3752.7707      7.5260479    
   4990000   300.86923     -207.55442      1229.6986      3712.6462      2.9922266    
   4995000   299.77463     -221.42066      1264.0413      3723.3343      10.787915    
   5000000   293.87311     -218.09993      1307.0775      3716.9173      4.7526857    
   5005000   296.55852     -206.77712      1293.5797      3738.7564      3.9165064    
   5010000   304.03749     -198.51154      1271.7534      3792.0759      11.513994    
   5015000   303.37068     -210.65422      1264.2965      3766.5133      4.7770878    
   5020000   298.75546     -205.42421      1297.8914      3764.067       9.0503421    
   5025000   299.23998     -203.25421      1333.5115      3806.1899      5.6075592    
   5030000   296.52369     -202.35365      1237.461       3686.7498      16.090716    
   5035000   304.75543     -220.6837       1298.688       3803.2585      5.7962617    
   5040000   298.89442     -217.80353      1302.2455      3757.2844      6.162485     
   5045000   302.74745     -211.63997      1239.7799      3735.4378      5.8412912    
   5050000   302.59084     -222.60246      1264.7624      3748.0574      4.9121787    
   5055000   302.89073     -213.09469      1291.8711      3787.3556     -1.0249222    
   5060000   305.96676     -215.2055       1235.8751      3756.756       12.699616    
   5065000   293.73302     -214.987        1269.7198      3681.4198      11.329885    
   5070000   295.11034     -212.2333       1273.4155      3700.1858      6.4350321    
   5075000   297.58448     -212.45304      1327.4834      3776.1589      7.477329     
   5080000   302.41258     -213.59554      1318.7873      3809.4952      2.7084419    
   5085000   299.91583     -199.68658      1269.9778      3752.2675      10.022863    
   5090000   295.0455      -191.92075      1269.3824      3715.8854      11.949542    
   5095000   296.48386     -217.83081      1312.3753      3745.8307      6.3896752    
   5100000   296.77155     -214.12843      1226.5359      3666.2663      8.3025674    
   5105000   295.49481     -208.63844      1280.6747      3714.478       14.355432    
   5110000   299.26022     -199.39134      1295.9232      3772.6455      2.5936483    
   5115000   305.93861     -209.37852      1271.8224      3798.2785      2.2721901    
   5120000   296.54078     -210.54415      1287.2524      3728.5034      4.6766141    
   5125000   295.54768     -204.75926      1241.3998      3679.5551      4.7307216    
   5130000   301.42334     -216.81399      1281.9639      3760.607       7.0088172    
   5135000   300.56608     -215.75223      1308.5004      3780.5394      5.1161009    
   5140000   301.0864      -215.10347      1298.3403      3775.681       10.560017    
   5145000   300.58345     -222.18057      1347.004       3812.77        1.8511998    
   5150000   304.35926     -211.97037      1325.527       3835.268       6.3219177    
   5155000   297.99741     -209.92488      1252.7605      3707.6566      12.36632     
   5160000   310.67968     -217.44135      1249.0487      3809.8387      4.2955495    
   5165000   304.11296     -205.23558      1284.5715      3798.8449      7.5184363    
   5170000   304.8093      -206.36645      1256.564       3775.9334      11.540225    
   5175000   300.58661     -229.86017      1248.0047      3706.1193      11.443869    
   5180000   299.99688     -213.66956      1302.7646      3771.7962     -1.9188698    
   5185000   299.3258      -218.26525      1317.4015      3775.8364      2.9941141    
   5190000   306.42819     -205.4612       1293.2236      3827.9751      7.5604924    
   5195000   296.56709     -214.04633      1281.59        3719.5742      8.4725325    
   5200000   302.34214     -192.58999      1268.1019      3779.1854      18.285697    
   5205000   302.35848     -190.79518      1230.134       3743.1583      12.772103    
   5210000   292.83279     -216.99171      1314.3292      3715.9743      3.5245853    
   5215000   299.10724     -201.88014      1277.9822      3750.8477      19.166759    
   5220000   306.57156     -221.63583      1284.2519      3804.1108      12.954311    
   5225000   298.88957     -205.59384      1309.3276      3776.5329      10.401486    
   5230000   301.4454      -227.42919      1292.2777      3760.5029      2.2895237    
   5235000   304.6867      -203.02097      1369.7853      3891.4039      4.6384249    
   5240000   294.00705     -211.17377      1297.0974      3715.0612      0.11483765   
   5245000   301.7493      -209.91947      1289.4003      3777.8528      9.8404132    
   5250000   293.86421     -219.33803      1265.9433      3674.4654      17.018816    
   5255000   304.27854     -219.52956      1328.272       3829.732       9.3568791    
   5260000   301.64403     -210.07486      1291.4331      3778.789       9.5104854    
   5265000   304.94551     -204.91767      1271.7376      3793.7738      6.4571366    
   5270000   297.98895     -214.63607      1267.3982      3717.5075      10.61553     
   5275000   298.87533     -219.44067      1276.7311      3729.9622      5.5508076    
   5280000   292.26414     -220.24209      1289.1636      3682.4732      7.5049372    
   5285000   305.56302     -207.18388      1261.013       3786.305       7.8703669    
   5290000   293.61922     -221.88873      1288.417       3692.1976      8.1369999    
   5295000   299.93107     -226.52287      1254.3695      3709.9592      8.653307     
   5300000   299.78431     -209.21995      1328.0082      3799.5885      14.121008    
   5305000   304.14417     -223.95736      1312.7137      3808.5444      3.7228869    
   5310000   299.6044      -213.09229      1296.7717      3762.8709      9.1553828    
   5315000   296.06416     -215.38107      1274.611       3706.763       0.1100098    
   5320000   305.64705     -209.69094      1261.8009      3785.3374      9.2605403    
   5325000   298.57383     -222.27318      1306.1558      3753.8582      8.4164337    
   5330000   300.23731     -208.22882      1259.3344      3735.9567      5.7013787    
   5335000   304.10642     -202.90349      1274.7291      3791.276       7.4572388    
   5340000   302.17982     -220.26666      1254.1898      3736.145       5.1572586    
   5345000   305.37909     -209.78791      1322.2721      3843.3154      11.781372    
   5350000   290.77229     -210.83537      1240.576       3629.9515      5.4028513    
   5355000   301.72532     -207.66023      1259.5904      3750.0877      7.7145246    
   5360000   297.90082     -214.71814      1337.5558      3786.7949      3.0934812    
   5365000   297.39861     -213.6695       1278.1362      3723.9331      11.699293    
   5370000   304.85187     -209.53091      1308.3455      3824.9312      10.313059    
   5375000   301.54621     -195.53191      1246.031       3747.055       11.576015    
   5380000   294.67977     -219.97193      1260.8333      3676.0146      16.103498    
   5385000   301.84683     -208.81565      1248.5863      3739.0148      16.535755    
   5390000   301.56247     -223.06927      1224.9568      3698.5889      10.27572     
   5395000   304.89294     -209.5738       1250.1623      3767.0723      13.753224    
   5400000   295.26056     -212.9534       1298.9562      3726.3497      9.5381839    
   5405000   296.54648     -227.44383      1300.6688      3725.0711      5.7777521    
   5410000   297.53712     -219.21333      1300.5574      3742.049       7.5456196    
   5415000   300.24757     -197.84139      1271.6294      3758.7309      8.1989512    
   5420000   295.00933     -186.84239      1295.9024      3747.1603      3.7084827    
   5425000   302.76167     -223.05049      1287.5829      3771.9575      11.997665    
   5430000   300.53715     -195.9481       1265.4365      3757.0209      7.605158     
   5435000   298.22878     -207.60153      1283.9912      3743.2797      4.1061841    
   5440000   295.95633     -201.9844       1268.5137      3713.0981      2.0988841    
   5445000   295.32667     -226.39077      1277.7986      3692.346       1.4618109    
   5450000   300.27627     -217.7782       1293.4842      3760.9056      1.2759946    
   5455000   299.85276     -222.29988      1302.9024      3762.0148      9.9621931    
   5460000   301.72998     -224.66667      1255.2425      3728.7751      7.4509651    
   5465000   291.01182     -234.58872      1278.4041      3646.1683      11.905651    
   5470000   301.71082     -206.55523      1286.8444      3778.3171      9.6849541    
   5475000   303.58922     -218.6045       1245.7638      3741.9847      8.6516349    
   5480000   301.69093     -210.61648      1219.926       3707.1596      9.6449968    
   5485000   300.60208     -202.35416      1312.1955      3797.9545      12.754435    
   5490000   302.51965     -212.44199      1305.2547      3798.0736      13.240442    
   5495000   297.22873     -212.41623      1294.2295      3739.7604      2.6407829    
   5500000   299.36777     -207.2741       1239.1131      3708.9144      10.059869    
   5505000   301.86536     -203.1465       1298.3546      3794.618       17.484623    
   5510000   302.60354     -210.75216      1335.6336      3830.8924      8.0622461    
   5515000   300.32609     -217.27083      1281.3589      3749.7331      7.9088654    
   5520000   307.29627     -213.24506      1313.2189      3847.9493      3.3451468    
   5525000   302.50636     -199.90988      1318.3418      3823.5739      7.3055064    
   5530000   299.04001     -195.8706       1250.8297      3729.1035      4.3103818    
   5535000   296.22503     -221.00683      1301.9177      3729.8825      5.8225715    
   5540000   301.64332     -198.59144      1289.1875      3788.0204      13.746092    
   5545000   298.73115     -221.88605      1298.4728      3747.9692      4.1445852    
   5550000   297.44911     -206.43278      1314.1241      3767.6092      4.2131258    
   5555000   306.11223     -193.64062      1271.6694      3815.416       11.197761    
   5560000   294.78699     -199.3826       1322.8569      3759.5863      10.660175    
   5565000   298.264       -209.80735      1313.844       3771.2417      8.4272664    
   5570000   298.37789     -216.2435       1286.804       3738.7839      7.9800132    
   5575000   301.8589      -204.20834      1261.5339      3756.6777      5.9552817    
   5580000   302.27808     -217.82204      1262.6568      3747.9354      8.3325144    
   5585000   298.1495      -208.97512      1304.2282      3761.4342      8.8836853    
   5590000   295.36748     -198.58973      1260.1615      3702.8748      10.092262    
   5595000   305.61698     -197.51167      1255.1651      3790.6119      11.305398    
   5600000   302.04287     -201.97634      1267.8668      3766.8877      9.5023898    
   5605000   304.44291     -199.02234      1310.2196      3833.6567      9.755858     
   5610000   301.45253     -215.48489      1271.5813      3751.8146      11.667733    
   5615000   300.69151     -198.03133      1332.9463      3823.8278      7.3623665    
   5620000   299.92018     -208.87192      1250.4349      3723.5783      3.1976974    
   5625000   301.76126     -201.79663      1281.472       3778.1544      0.54981933   
   5630000   300.20843     -199.08163      1279.3111      3764.8224      8.3936815    
   5635000   295.24694     -231.80047      1339.8364      3748.261       5.4204989    
   5640000   302.85997     -212.17076      1274.8434      3770.9768      4.5301219    
   5645000   301.40395     -213.64467      1279.2904      3760.9295      10.231086    
   5650000   301.52843     -219.50383      1251.9391      3728.8322      14.530336    
   5655000   296.55728     -207.93931      1293.7783      3737.7818      10.816676    
   5660000   308.58682     -219.24233      1287.982       3828.2558      14.827218    
   5665000   300.44698     -198.97329      1235.9212      3723.674       11.312555    
   5670000   297.79368     -210.10664      1315.6171      3768.5096      5.0527649    
   5675000   306.47086     -217.97742      1274.3723      3796.9891      3.0694889    
   5680000   305.43085     -208.47682      1270.1574      3792.9746      7.9280255    
   5685000   302.33039     -214.64591      1285.4951      3774.4176      10.56763     
   5690000   298.15043     -191.37329      1299.8812      3774.6973      9.6958509    
   5695000   303.14349     -205.98312      1264.959       3769.8153      10.902473    
   5700000   298.2595      -214.23936      1276.2708      3729.1962      12.209609    
   5705000   302.68597     -203.29889      1271.6112      3775.0605      10.596872    
   5710000   299.79596     -220.05673      1269.4708      3730.3185      1.8811767    
   5715000   303.25439     -217.59329      1262.2015      3756.4394      10.074474    
   5720000   304.38692     -193.25547      1259.729       3788.4323      8.1157942    
   5725000   309.40809     -212.37124      1277.4147      3831.9037      13.422032    
   5730000   302.7443      -204.64837      1229.3607      3731.9821      7.1533694    
   5735000   301.7409      -199.88695      1233.5401      3731.9501      9.2538052    
   5740000   301.41043     -208.38435      1324.6152      3811.5726      5.2976367    
   5745000   298.10629     -216.94049      1250.6786      3699.5328      5.7258842    
   5750000   302.6792      -216.48963      1273.8555      3764.0535      5.6316137    
   5755000   298.41338     -213.95912      1289.9472      3744.5288      5.8348672    
   5760000   293.15211     -216.31965      1271.8815      3677.0541      8.4841631    
   5765000   296.68949     -212.29973      1219.171       3659.9963      9.4903669    
   5770000   298.61337     -233.11183      1326.4884      3763.7057     -1.479705     
   5775000   299.16835     -203.68651      1283.7206      3755.3262      2.599406     
   5780000   287.49745     -197.39978      1300.8328      3674.3589      8.6588788    
   5785000   297.28472     -222.66961      1306.0399      3741.8182      2.5873884    
   5790000   300.64458     -206.47619      1310.5464      3792.5634      11.050096    
   5795000   297.9099      -212.72681      1243.445       3694.7567      4.6546518    
   5800000   297.93653     -223.73427      1285.2441      3725.7865      5.7796451    
   5805000   297.71562     -212.90061      1332.1913      3781.5918      6.1776528    
   5810000   308.80699     -197.3127       1290.5134      3854.6856      9.6208067    
   5815000   303.98991     -221.07442      1303.1128      3800.4469      12.833609    
   5820000   303.02639     -203.46038      1276.6815      3783.0135      3.6458086    
   5825000   306.95363     -204.29782      1257.6806      3798.2942      7.061919     
   5830000   292.59734     -211.49347      1287.9707      3693.0085      6.5471085    
   5835000   297.79868     -201.46294      1305.1695      3766.7505      1.5247665    
   5840000   299.94512     -204.62831      1289.626       3767.2359      12.611465    
   5845000   297.61608     -230.74487      1271.3133      3701.9795      8.4235613    
   5850000   299.77012     -214.46699      1310.2397      3776.446       11.186383    
   5855000   297.70591     -199.15826      1272.4877      3735.5437      15.749133    
   5860000   292.31435     -203.56428      1290.6119      3701.0482     -0.5890646    
   5865000   301.83763     -198.29161      1300.8804      3801.7508      17.329844    
   5870000   304.85849     -216.25645      1285.1548      3795.0741      11.093797    
   5875000   298.94869     -204.12397      1278.8724      3748.0762      9.004915     
   5880000   297.51028     -185.71867      1282.2888      3757.0351      15.359244    
   5885000   299.94231     -198.79389      1283.4407      3766.86        1.6907187    
   5890000   305.19943     -210.67523      1277.9037      3796.453       6.3739967    
   5895000   299.66193     -221.43005      1268.3012      3726.577       6.6335759    
   5900000   305.61816     -211.87265      1280.4852      3801.5816      5.7517644    
   5905000   299.93114     -206.64862      1275.1394      3750.6041      8.1967394    
   5910000   301.97236     -214.49154      1288.6529      3774.5282      0.93664271   
   5915000   304.9061      -195.54918      1293.0839      3824.1362      1.1463187    
   5920000   296.68396     -205.15347      1288.5529      3736.475       15.287861    
   5925000   293.23529     -200.1914       1278.5309      3700.5756      2.9437898    
   5930000   305.04307     -206.7115       1289.6943      3810.8091      12.546112    
   5935000   299.05626     -210.47268      1254.9835      3718.8005      4.9461031    
   5940000   296.76265     -202.35476      1245.3772      3696.8017      9.2442549    
   5945000   307.10319     -219.88405      1293.745       3820.1097     -0.68915261   
   5950000   303.4638      -202.2053       1310.643       3822.1415      15.274015    
   5955000   302.3837      -192.00156      1294.2872      3806.3308      7.8306135    
   5960000   298.51496     -192.5017       1315.2517      3792.1992      4.2213367    
   5965000   301.03915     -203.50721      1288.0265      3776.5408      11.348242    
   5970000   297.58356     -205.77367      1308.2993      3763.6459      9.93666      
   5975000   303.5811      -201.42941      1322.1313      3835.4546      3.4911655    
   5980000   302.892       -218.51629      1268.4106      3758.4848      9.5069599    
   5985000   295.79254     -201.63932      1296.4049      3739.8696      9.578064     
   5990000   297.6628      -212.26212      1300.9122      3750.4789     -3.6400845    
   5995000   295.31195     -201.34982      1274.7638      3714.2205      3.3921614    
   6000000   297.63143     -203.30726      1232.1614      3690.4024      10.531722    
   6005000   294.9666      -215.31119      1251.4178      3673.8249      6.0585963    
   6010000   305.31442     -210.16688      1248.8073      3768.8933      15.436426    
   6015000   297.90419     -214.43584      1245.0359      3694.5875      10.657182    
   6020000   305.99769     -220.49556      1253.1992      3769.0667     -0.36488159   
   6025000   296.59194     -223.55685      1256.6712      3685.367       7.8382532    
   6030000   289.51027     -219.49862      1288.858       3658.2848      8.4432603    
   6035000   302.53218     -209.51182      1242.2452      3738.1062      7.927164     
   6040000   293.25793     -210.75845      1318.0373      3729.7174      7.5627083    
   6045000   298.1894      -212.98488      1312.1959      3765.749       7.8468549    
   6050000   302.19007     -195.50492      1267.2574      3774.0661      9.6837641    
   6055000   294.9188      -198.20068      1255.6549      3694.745       8.7565269    
   6060000   310.24679     -230.82939      1292.9032      3836.4341      5.714129     
   6065000   302.78916     -213.43651      1313.7301      3807.9645      3.0217379    
   6070000   300.57053     -200.80393      1293.2109      3780.238       4.9178486    
   6075000   290.9987      -189.57503      1252.8292      3665.4897      5.1721892    
   6080000   302.44411     -198.95656      1276.4873      3782.1161      8.1803743    
   6085000   301.72362     -225.33164      1250.3558      3723.1665      13.468755    
   6090000   294.32227     -204.502        1303.9325      3731.3869      5.9748717    
   6095000   304.07097     -224.1892       1276.052       3770.9962      8.0647289    
   6100000   300.91663     -205.89897      1311.0114      3796.0383      3.6079569    
   6105000   289.44287     -220.82095      1332.7547      3700.2564     -2.4157843    
   6110000   294.58269     -208.04625      1238.6618      3664.9007      3.5563707    
   6115000   295.49897     -203.30329      1246.1892      3685.3648      10.259763    
   6120000   305.66389     -207.91683      1262.2651      3787.7263      7.1159911    
   6125000   303.46319     -226.89851      1343.07        3829.8698      14.886545    
   6130000   303.99424     -202.69591      1255.1227      3770.874       11.733203    
   6135000   299.93756     -202.52334      1318.2484      3797.8957      6.3909897    
   6140000   298.66744     -201.59614      1317.444       3786.6606      8.0835277    
   6145000   299.65356     -226.15859      1273.8661      3727.3385      7.7025901    
   6150000   299.22236     -208.63585      1244.903       3712.0422      10.464283    
   6155000   293.23795     -227.43356      1298.6964      3693.5227      9.865684     
   6160000   298.98112     -201.65859      1254.7865      3726.7457      9.2027756    
   6165000   300.46465     -194.95746      1276.6893      3768.6161      11.977193    
   6170000   300.34888     -208.99911      1284.8313      3761.6811      12.789809    
   6175000   299.36481     -220.91794      1289.6005      3745.7314      3.9338595    
   6180000   303.22301     -198.94447      1322.3922      3834.9983      9.422617     
   6185000   301.96787     -202.25731      1275.9521      3774.0213      7.3956574    
   6190000   295.50545     -196.63421      1283.7216      3729.6242      4.5248573    
   6195000   299.97065     -202.97907      1247.492       3726.9795      10.43055     
   6200000   307.05998     -209.19443      1320.8643      3857.5323      7.4030937    
   6205000   290.59529     -212.07135      1286.0611      3672.6177      3.1797967    
   6210000   302.21464     -212.06411      1318.2637      3808.733       6.9950699    
   6215000   306.59575     -190.13518      1292.6755      3844.2514      5.8951462    
   6220000   295.70762     -215.16485      1277.584       3706.7639      14.518229    
   6225000   300.77854     -207.07609      1290.4633      3773.0783      4.8228085    
   6230000   301.83542     -205.68856      1230.2458      3723.6994      8.4381403    
   6235000   294.30291     -192.99388      1317.9082      3756.6975      5.3363545    
   6240000   297.38681     -189.4322       1276.2201      3746.1487      10.38658     
   6245000   306.58326     -193.9886       1297.8341      3845.4449      14.879247    
   6250000   296.62987     -194.67406      1273.5319      3731.4497      9.2547697    
   6255000   305.26398     -198.6479       1274.9471      3806.101       11.187054    
   6260000   300.76012     -228.43452      1244.2201      3705.3119      13.076106    
   6265000   304.13115     -211.33089      1269.1336      3777.4743      7.5669535    
   6270000   296.92566     -221.96965      1251.9018      3685.1691      13.001568    
   6275000   302.8304      -193.16237      1284.1898      3799.0671      12.129369    
   6280000   302.1896      -207.64781      1311.9394      3806.6009      5.5177555    
   6285000   296.22732     -194.24343      1328.3699      3783.1185      3.8168117    
   6290000   304.40024     -234.04078      1329.9237      3817.9608      9.194297     
   6295000   306.11895     -226.80123      1291.3729      3802.019       6.5453482    
   6300000   296.15135     -193.73096      1294.5173      3749.0991      9.9264014    
   6305000   300.39314     -198.87175      1292.7787      3780.1516      5.8169534    
   6310000   303.84031     -233.91064      1329.3276      3812.4877      6.6762863    
   6315000   305.48701     -206.81531      1298.4041      3823.385       9.5104347    
   6320000   295.08988     -219.84267      1283.4184      3702.3964      7.7010909    
   6325000   299.39992     -217.9716       1266.5601      3725.9514      4.8495109    
   6330000   303.51417     -223.305        1276.861       3767.7102      7.4583073    
   6335000   306.34563     -198.29308      1282.4106      3823.5919      12.134103    
   6340000   298.115       -217.28246      1302.5007      3751.0908      3.0679795    
   6345000   305.07355     -193.61724      1309.5676      3844.0494      9.2503963    
   6350000   300.77172     -192.07912      1270.6779      3768.2289      2.6357106    
   6355000   294.01995     -204.9027       1291.4598      3715.81        8.4855472    
   6360000   304.52829     -221.63316      1237.9148      3739.5046      11.969515    
   6365000   309.28753     -194.65965      1242.1368      3813.2593      5.076128     
   6370000   297.48317     -220.87779      1277.4829      3716.8276      2.6448456    
   6375000   300.95244     -218.51859      1309.9196      3782.6472      12.165386    
   6380000   297.71558     -204.36474      1286.731       3744.6671      3.3021569    
   6385000   304.36925     -219.67463      1281.2641      3783.3902      3.2068425    
   6390000   305.1082      -196.15588      1257.1323      3789.3852      7.4191003    
   6395000   293.58944     -214.34378      1285.7953      3696.8546      1.0226231    
   6400000   304.91325     -212.36003      1289.5769      3803.8823      3.3317925    
   6405000   306.77707     -214.05369      1297.5905      3826.8693      2.708026     
   6410000   308.04615     -229.47239      1332.6229      3857.8317      10.536157    
   6415000   301.52647     -199.89979      1274.7548      3771.2344      0.47941836   
   6420000   306.0785      -196.04082      1292.1491      3833.1939      5.4716273    
   6425000   300.28137     -196.48378      1235.5726      3724.334       13.295179    
   6430000   297.62799     -214.69068      1299.6029      3746.4297      8.9086517    
   6435000   301.35832     -198.74631      1266.5285      3762.6579      0.6445276    
   6440000   295.12813     -222.93253      1299.9318      3716.162       7.9196563    
   6445000   300.71365     -215.32677      1277.1677      3750.9517      11.969386    
   6450000   296.13386     -201.99677      1238.629       3684.7886      0.82223575   
   6455000   305.26614     -207.60154      1280.1004      3802.32        7.226013     
   6460000   289.6811      -196.18828      1264.2235      3658.4882      9.17031      
   6465000   312.0871      -207.45409      1355.6817      3939.0447      1.1977263    
   6470000   298.26166     -212.91549      1273.8288      3728.0974      1.6423706    
   6475000   299.85987     -220.80172      1237.0197      3697.6939      11.71118     
   6480000   301.9809      -216.08121      1230.718       3715.0799      9.7618437    
   6485000   301.07276     -206.38243      1235.6926      3721.6322      14.535759    
   6490000   295.81366     -216.8946       1264.5987      3692.9971      7.4286403    
   6495000   301.41477     -211.76985      1348.6845      3832.2952      9.8325125    
   6500000   305.28973     -216.87362      1262.3185      3775.4769      9.0204012    
   6505000   294.36303     -200.70329      1307.4195      3739.0371      11.051405    
   6510000   304.15186     -199.41314      1281.3291      3801.7727      15.754916    
   6515000   301.85694     -203.21026      1313.5862      3809.7106      12.567173    
   6520000   303.35786     -201.30076      1254.4935      3765.9492      9.4641575    
   6525000   303.38865     -202.38241      1276.586       3787.2354      10.268525    
   6530000   300.82818     -205.08249      1315.8195      3800.872       13.288008    
   6535000   295.64668     -227.08783      1260.3018      3677.0138      5.0586152    
   6540000   304.02068     -216.33926      1275.5757      3777.9201      13.148494    
   6545000   301.62532     -222.86351      1313.8083      3788.2082      7.2326762    
   6550000   301.58205     -224.42614      1277.3647      3749.8149      12.398304    
   6555000   301.79106     -205.06731      1230.8735      3724.5516      6.7715479    
   6560000   293.12825     -203.80671      1289.6274      3707.0996      13.754469    
   6565000   291.40218     -199.76848      1273.4753      3679.5505      12.71888     
   6570000   302.86011     -202.08693      1269.1504      3775.3688      5.2722373    
   6575000   297.13393     -204.03237      1254.6998      3707.7668      3.7614006    
   6580000   301.06204     -215.59167      1254.3552      3730.9898      12.568477    
   6585000   297.20396     -204.57691      1277.0928      3730.2416      6.1070636    
   6590000   300.47456     -198.95344      1298.1078      3786.1271      9.4983136    
   6595000   303.13134     -214.31053      1313.7819      3810.2021      4.7052943    
   6600000   300.91615     -200.10397      1288.4147      3779.2324      6.2178599    
   6605000   295.90401     -200.61608      1276.8495      3722.3344      9.9304792    
   6610000   303.20227     -215.75071      1265.909       3761.5234      2.0620658    
   6615000   299.79099     -216.04325      1255.6611      3720.4779      3.9452184    
   6620000   294.35577     -228.8286       1257.4043      3660.8316      2.2000874    
   6625000   304.54896     -196.7172       1243.6281      3770.3187      14.128571    
   6630000   299.22058     -203.39409      1250.4183      3722.7834      9.064723     
   6635000   292.6591      -213.58024      1359.2703      3762.7737      1.7936727    
   6640000   302.47367     -193.95911      1289.4038      3800.2944      5.2789296    
   6645000   295.93373     -195.10878      1286.7068      3737.9648      6.8602572    
   6650000   299.25762     -187.87902      1333.4456      3821.657       4.9655431    
   6655000   304.08084     -206.04492      1219.8566      3733.0334      10.915555    
   6660000   306.81269     -205.9976       1302.6739      3840.3273      7.5327034    
   6665000   301.09148     -225.19635      1239.1122      3706.4054      2.4096649    
   6670000   291.30988     -199.90296      1264.0947      3669.21        3.1035476    
   6675000   292.43749     -220.47917      1288.3221      3682.9448     -1.2563588    
   6680000   293.20573     -197.78332      1256.6726      3680.8611      7.5895953    
   6685000   295.6921      -220.95877      1289.8298      3713.077       12.849955    
   6690000   295.0434      -192.80968      1266.7059      3712.3012      4.0726733    
   6695000   301.37629     -215.41423      1278.116       3757.7382      1.5231731    
   6700000   290.21698     -211.73184      1299.976       3683.4892      0.82609567   
   6705000   306.84931     -224.60756      1316.1912      3835.5621      11.081025    
   6710000   298.15183     -204.23963      1268.0375      3729.9998      9.159995     
   6715000   294.9258      -214.85242      1272.3311      3694.832       4.5430741    
   6720000   298.42093     -191.02386      1300.1788      3777.7633      16.054266    
   6725000   301.59623     -203.90104      1299.4659      3792.5681      3.1467454    
   6730000   301.60847     -217.72952      1335.9401      3815.3232      6.6482346    
   6735000   293.01367     -215.99004      1274.3051      3678.5694      2.3110069    
   6740000   300.35118     -211.02881      1244.6138      3719.4545      6.8348504    
   6745000   302.83465     -231.95132      1292.7156      3768.842      -0.62917644   
   6750000   298.67461     -220.50183      1272.5477      3722.9228      11.213996    
   6755000   302.62132     -212.39579      1257.3209      3751.0951      5.0742968    
   6760000   301.97722     -202.07357      1295.9169      3794.2536      9.3754822    
   6765000   301.19873     -205.15804      1297.1623      3785.4529      11.213997    
   6770000   304.78021     -210.11775      1275.3452      3790.7032      8.9060724    
   6775000   298.56646     -212.95822      1304.7772      3761.7287      2.1667056    
   6780000   298.44325     -211.06309      1250.9007      3708.6455      12.968546    
   6785000   304.93263     -225.2328       1273.086       3774.692      -0.55153055   
   6790000   299.30433     -207.38059      1215.4353      3684.5628      9.6348104    
   6795000   296.03147     -214.77315      1281.052       3713.5197      7.4116843    
   6800000   295.99917     -207.05948      1274.7566      3714.6491      2.3528185    
   6805000   302.32965     -199.89799      1356.5194      3860.1832      11.477021    
   6810000   300.81228     -211.48139      1259.4413      3737.9527      9.3115796    
   6815000   302.61997     -213.18591      1276.944       3769.9161      0.52128427   
   6820000   306.66137     -201.86541      1295.432       3835.8645      7.5534389    
   6825000   302.31226     -206.04011      1264.1118      3761.4779      11.815075    
   6830000   303.18884     -206.00924      1264.1193      3769.355       9.3353445    
   6835000   301.14161     -196.93467      1269.6655      3765.6687      4.0336755    
   6840000   293.70741     -210.54724      1320.0948      3736.0056      8.6055471    
   6845000   298.76137     -220.88803      1289.4816      3740.2463      1.4588143    
   6850000   303.99254     -191.19281      1287.4221      3814.6614      12.126545    
   6855000   298.99287     -216.0735       1272.7608      3730.4101      5.8196728    
   6860000   299.5911      -210.10962      1223.6956      3692.6584      4.7157479    
   6865000   299.13496     -197.75958      1254.7504      3731.9844      6.1579649    
   6870000   301.79329     -207.65135      1283.6427      3774.7567     -1.8707754    
   6875000   306.63626     -190.91433      1249.1472      3800.3062      4.5766671    
   6880000   297.96838     -214.80381      1267.5587      3717.3163      7.8707229    
   6885000   299.26241     -220.13249      1268.3601      3724.3608      14.393515    
   6890000   301.06848     -226.09594      1270.2487      3736.4366      4.6087144    
   6895000   299.88138     -223.47614      1314.6022      3772.7944      5.0776886    
   6900000   296.88865     -222.36662      1255.6384      3688.1778      6.2544818    
   6905000   297.39216     -216.46435      1334.9083      3777.8525      4.2996372    
   6910000   300.25121     -203.58663      1266.0118      3747.4007      6.9854864    
   6915000   295.86037     -207.02467      1305.7745      3744.4605      10.728953    
   6920000   299.22976     -198.55927      1244.7118      3721.9938      4.35824      
   6925000   305.3069      -207.68684      1258.4067      3780.9054      8.462129     
   6930000   298.57096     -222.05504      1286.4448      3734.3398      3.2698809    
   6935000   296.72733     -207.71225      1311.9697      3757.7209      5.7704534    
   6940000   304.8651      -211.11934      1286.3506      3801.4661      10.847778    
   6945000   297.12321     -214.88772      1297.5005      3739.6163      2.558765     
   6950000   306.4796      -211.45265      1340.1265      3869.3463      3.8224175    
   6955000   300.22113     -215.08877      1242.0457      3711.6634      11.530211    
   6960000   289.06996     -202.85031      1248.9026      3631.0402      1.8245966    
   6965000   305.43539     -205.99265      1275.3956      3800.7376      7.6242535    
   6970000   294.24313     -206.17364      1233.0651      3658.14       -0.36693687   
   6975000   297.85572     -201.00932      1365.3187      3827.8634     -1.2420925    
   6980000   296.561       -220.79726      1283.0394      3714.2182      15.582968    
   6985000   299.07812     -213.37657      1265.1697      3726.2783      11.640655    
   6990000   303.15052     -211.14706      1253.4187      3753.174       10.362304    
   6995000   301.05391     -200.84261      1257.3409      3748.6519      12.198578    
   7000000   307.3147      -189.07091      1289.1369      3848.2062      14.503007    
   7005000   293.31164     -215.56242      1259.45        3666.8064      5.7445968    
   7010000   301.10227     -211.23957      1293.4337      3774.7801      10.837444    
   7015000   296.3452      -219.86821      1264.2193      3694.3973      3.6589672    
   7020000   308.79053     -220.28188      1275.243       3816.2989      8.2958837    
   7025000   290.47773     -214.48747      1282.9625      3666.0518      8.746185     
   7030000   301.03982     -229.4908       1300.7729      3763.3097      7.6102896    
   7035000   303.76427     -216.99748      1334.1244      3833.5177      6.5190301    
   7040000   297.79486     -203.78426      1265.278       3724.5035      9.5642985    
   7045000   295.45271     -206.91815      1322.4542      3757.6013     -3.8296078    
   7050000   291.41406     -222.41671      1295.6182      3679.1514     -1.7728012    
   7055000   292.67846     -203.85764      1278.3462      3691.7453      5.6901807    
   7060000   297.86293     -222.23401      1280.7267      3722.1112      1.8615425    
   7065000   302.79151     -209.90334      1256.2552      3754.0438      6.1746035    
   7070000   304.23347     -212.32107      1247.4091      3755.6746      4.4315797    
   7075000   299.29594     -228.07615      1302.1914      3750.5482      10.759419    
   7080000   288.22071     -220.89339      1297.0789      3653.579       5.9089368    
   7085000   300.28475     -207.84505      1318.7145      3796.1449      6.4999863    
   7090000   290.4955      -226.47999      1277.127       3648.3828     -4.8918378    
   7095000   291.96817     -210.37346      1294.4709      3695.0024      11.60666     
   7100000   297.01113     -216.89695      1267.3107      3706.415       4.391938     
   7105000   303.74017     -202.7768       1266.6809      3780.0793      1.4497362    
   7110000   296.4844      -210.71169      1302.7454      3743.3247      6.8947157    
   7115000   297.44985     -212.68211      1279.3512      3726.5935     -0.41292662   
   7120000   296.38079     -217.32105      1303.7105      3736.754       6.6668817    
   7125000   303.64841     -203.45381      1327.116       3839.0169      16.733504    
   7130000   296.29953     -224.58409      1311.7676      3736.8213      14.492834    
   7135000   302.50771     -208.21635      1275.1496      3772.0874      5.5682016    
   7140000   298.21716     -199.16572      1352.4239      3820.0443      1.2711177    
   7145000   301.21505     -220.06979      1285.4747      3758.9995      12.730998    
   7150000   292.48841     -210.04359      1313.9025      3719.4161      5.0935744    
   7155000   298.65438     -214.93047      1228.6186      3684.384       6.5214639    
   7160000   298.03011     -204.70503      1301.7042      3762.1126      11.883987    
   7165000   298.89576     -222.99326      1278.891       3728.7522      5.3680301    
   7170000   311.03227     -208.15317      1299.7335      3872.9647      13.647187    
   7175000   304.62603     -224.93955      1293.8767      3793.0342      1.9187798    
   7180000   301.59031     -197.80535      1284.984       3784.129       6.7516451    
   7185000   299.9071      -228.97419      1248.9068      3701.8309      5.7546381    
   7190000   298.90246     -216.69494      1291.6806      3747.9         11.572145    
   7195000   299.49181     -221.79138      1246.4635      3702.8568      10.824602    
   7200000   298.5785      -193.50165      1316.161       3792.6768      2.4208477    
   7205000   300.51064     -206.19209      1305.563       3786.6663      6.5970909    
   7210000   301.96468     -200.62524      1257.141       3756.8139      11.417418    
   7215000   298.99889     -209.08401      1296.6842      3761.3768      9.9775636    
   7220000   298.96466     -199.73049      1272.8932      3746.6333      6.3770553    
   7225000   306.95586     -208.44852      1300.2419      3836.7248      2.6290333    
   7230000   294.98088     -199.7019       1323.8485      3761.9925      9.4455895    
   7235000   302.88218     -212.31948      1302.7838      3798.9671      9.5043471    
   7240000   304.50877     -217.78343      1317.7407      3823.0056      11.884314    
   7245000   297.11397     -216.17054      1233.8847      3674.6351      9.3436989    
   7250000   299.16384     -205.6234       1332.3086      3801.937       3.7131936    
   7255000   296.54208     -200.80143      1302.5533      3753.5587      1.786003     
   7260000   300.04127     -210.13981      1303.4598      3776.418       8.35649      
   7265000   299.52461     -220.03651      1247.9708      3706.4122      6.1154378    
   7270000   296.03361     -191.78724      1278.1292      3733.6018      6.5802758    
   7275000   306.15613     -206.40197      1297.2318      3828.6096      3.1984824    
   7280000   298.8144      -203.48315      1316.8224      3785.4661      9.1550105    
   7285000   303.54727     -202.96343      1256.9628      3768.4496     -3.0760516    
   7290000   302.96903     -225.47877      1273.6007      3757.4013      13.192502    
   7295000   304.87186     -196.94313      1252.8281      3782.1803      5.8715303    
   7300000   303.79837     -214.79077      1298.3043      3800.2093      3.7500886    
   7305000   289.61761     -202.90914      1274.801       3661.777       14.886899    
   7310000   298.50163     -183.44299      1303.3718      3789.2589      7.1265963    
   7315000   299.72519     -206.84993      1248.4298      3721.8515      8.7906087    
   7320000   295.53004     -195.61044      1285.9504      3733.0967      7.3938375    
   7325000   297.15251     -216.87138      1296.1691      3736.5633      2.1324578    
   7330000   302.87468     -204.98647      1291.5608      3795.01        17.600498    
   7335000   292.65074     -195.39436      1240.684       3662.2984      2.2847694    
   7340000   299.00905     -206.19116      1297.9966      3765.673       7.064122     
   7345000   298.44375     -191.16918      1277.2657      3754.909       5.5656993    
   7350000   304.08204     -204.34777      1243.1644      3758.0489      9.9062437    
   7355000   297.62455     -202.14483      1286.9171      3746.259       6.6770404    
   7360000   296.05869     -209.74588      1299.2777      3737.016       3.97858      
   7365000   298.34848     -203.09305      1276.7795      3741.6469      16.12136     
   7370000   297.18149     -211.06558      1319.8293      3766.2885      10.609775    
   7375000   300.87039     -192.74155      1243.0092      3740.7801      11.184648    
   7380000   299.635       -200.99251      1292.7993      3771.2718      1.8225232    
   7385000   295.0687      -209.06404      1287.5597      3717.1268      9.6707126    
   7390000   304.79977     -213.28288      1253.5061      3765.8739      4.7543871    
   7395000   302.1818      -201.77898      1280.2553      3780.7159      9.5469457    
   7400000   299.97858     -212.7403       1260.3279      3730.1251      4.0605822    
   7405000   299.13903     -222.57629      1283.4362      3735.8898      14.25832     
   7410000   305.61209     -208.708        1300.8875      3825.0943      3.8001236    
   7415000   296.15584     -201.15338      1324.4267      3771.6262      7.1475726    
   7420000   305.83583     -191.68113      1278.0827      3821.3171     -1.1636465    
   7425000   297.50689     -204.03052      1273.199       3729.603       9.5117188    
   7430000   300.80215     -207.33361      1276.6342      3759.2028      8.9443113    
   7435000   310.86946     -209.64037      1255.91        3826.198       5.5743084    
   7440000   296.29912     -191.01261      1257.1597      3715.7813      9.674132     
   7445000   288.47273     -212.93705      1265.4737      3632.1839      8.3110107    
   7450000   290.89385     -213.87346      1266.3822      3653.8067      11.843779    
   7455000   303.82519     -213.13769      1303.8207      3807.6185      8.4335003    
   7460000   303.69835     -214.22043      1234.2744      3735.8552      10.507133    
   7465000   301.85123     -215.88934      1320.865       3804.2593      9.603145     
   7470000   303.97954     -219.65047      1240.3286      3738.994       4.2877838    
   7475000   298.39441     -204.62775      1239.4671      3703.2105      10.269715    
   7480000   299.43247     -214.51289      1265.6055      3728.7466      6.8891991    
   7485000   294.98892     -215.13857      1254.4437      3677.223       7.3053333    
   7490000   304.8956      -201.13627      1283.299       3808.6703      2.198224     
   7495000   297.47808     -182.99557      1272.198       3749.3794      3.4345296    
   7500000   297.95602     -224.12402      1326.8849      3767.2118      8.5147823    
   7505000   302.08573     -195.4084       1279.1817      3785.1539      8.1703319    
   7510000   305.64755     -202.57426      1277.0745      3807.7321      2.4687526    
   7515000   302.42725     -203.28394      1283.6369      3784.7875      2.742059     
   7520000   304.46124     -187.51364      1302.4605      3837.5702      12.895984    
   7525000   299.10564     -203.77721      1307.3921      3778.3462      10.197633    
   7530000   297.68942     -224.90909      1272.5036      3709.6614      8.7883075    
   7535000   297.74294     -207.80611      1269.3937      3724.133       9.7100716    
   7540000   298.31378     -208.15648      1249.409       3708.9027      10.521864    
   7545000   300.22835     -214.18761      1251.1736      3721.757       6.228175     
   7550000   300.44256     -204.86427      1257.1882      3739.0106      6.8932702    
   7555000   297.86228     -203.08364      1261.6143      3722.1433      7.0174584    
   7560000   301.08481     -213.08592      1221.3196      3700.6635      8.5391743    
   7565000   304.59933     -200.00579      1289.4509      3813.3033      8.2946811    
   7570000   304.50816     -210.99663      1277.3568      3789.4031      7.4513708    
   7575000   296.65042     -211.00762      1291.5771      3733.3452      6.4251586    
   7580000   306.06403     -213.79036      1284.5468      3807.7127      10.426977    
   7585000   296.34399     -200.61627      1238.6874      3688.1066      12.968885    
   7590000   294.62034     -195.95801      1304.1522      3742.816       8.4230065    
   7595000   306.74474     -216.66358      1304.0933      3830.4731      7.2441717    
   7600000   303.52712     -203.06354      1245.5935      3756.8         9.0205995    
   7605000   301.2478      -219.69751      1233.5942      3707.7841      6.7685768    
   7610000   301.41096     -202.1235       1295.0246      3788.2475      17.027615    
   7615000   301.47286     -211.05614      1353.2812      3838.1251      4.7583169    
   7620000   308.46966     -222.88549      1276.9298      3812.5128      9.1840646    
   7625000   305.23483     -208.88257      1271.2888      3791.9473      7.997115     
   7630000   310.42183     -191.85771      1274.0383      3858.1062      9.8211749    
   7635000   308.78215     -212.04009      1265.5237      3814.7464      3.1880553    
   7640000   299.75028     -217.57641      1222.0579      3684.9774      10.38635     
   7645000   302.31219     -201.66007      1270.7746      3772.5202      6.4007056    
   7650000   304.16708     -212.18779      1265.1929      3772.998       20.792142    
   7655000   298.57559     -201.46205      1284.498       3753.0273      8.6424397    
   7660000   295.69705     -189.55959      1309.0212      3763.7118      9.9671816    
   7665000   300.73677     -226.76485      1317.536       3780.0887     -2.4471268    
   7670000   293.45882     -190.23814      1296.8949      3730.8917      10.845515    
   7675000   298.01988     -200.46819      1285.2211      3749.7749      12.951761    
   7680000   296.93772     -210.26104      1278.339       3723.4228      5.0622504    
   7685000   306.81108     -203.50075      1277.9685      3818.1044      5.0029675    
   7690000   307.32361     -207.64615      1302.0307      3842.6044     -4.519967     
   7695000   307.0392      -206.75063      1268.1154      3807.0414      2.1179127    
   7700000   294.71057     -207.67399      1311.1625      3738.9172      0.30143036   
   7705000   303.88927     -214.99585      1214.6613      3717.174       5.9056771    
   7710000   293.90546     -216.46636      1278.397       3690.1596      5.3261935    
   7715000   298.20539     -200.69807      1266.3259      3732.3087      8.5543837    
   7720000   303.5697      -209.22073      1317.2841      3822.7142      11.001226    
   7725000   293.98208     -201.7286       1268.7707      3695.9564      12.930791    
   7730000   294.00488     -198.38142      1301.8451      3732.5818      9.1475791    
   7735000   289.94642     -200.78077      1250.5165      3642.5613      9.6471041    
   7740000   295.24143     -202.98806      1306.8247      3744.0124      9.9941047    
   7745000   299.35605     -200.75262      1250.8701      3727.0881      8.9643906    
   7750000   303.3274      -207.18828      1275.3094      3780.6053      11.843235    
   7755000   294.16209     -213.09554      1249.6166      3667.0451      4.0870084    
   7760000   299.98931     -205.81508      1278.9704      3755.7888      16.621127    
   7765000   297.90225     -218.35996      1293.3043      3738.9144      11.659516    
   7770000   295.46876     -220.28683      1311.9832      3733.9051      3.3586579    
   7775000   299.31326     -212.99088      1312.6848      3776.2818      3.0297008    
   7780000   300.19333     -217.55625      1252.2482      3719.1499      10.583358    
   7785000   300.34913     -207.63762      1245.3591      3723.5727      8.15032      
   7790000   298.18646     -197.13839      1279.7991      3749.1723      2.9102957    
   7795000   296.47488     -216.29488      1309.9641      3744.8751      6.1780526    
   7800000   294.50239     -226.18749      1333.5381      3740.9177     -0.018448877  
   7805000   299.77562     -205.81605      1290.9593      3765.8657      13.188585    
   7810000   293.10001     -202.84655      1258.1489      3676.3288      7.2819913    
   7815000   294.2783      -208.7461       1230.3489      3653.1659      6.1964668    
   7820000   298.27789     -203.73003      1298.6637      3762.263       6.7328459    
   7825000   308.13101     -190.44022      1308.9108      3873.9107      7.6414585    
   7830000   307.92577     -200.44494      1267.1172      3820.277       7.5819084    
   7835000   305.3065      -193.65696      1360.8198      3897.3448      1.6733559    
   7840000   299.3207      -223.10538      1241.1839      3694.733       9.7337215    
   7845000   303.37239     -212.66761      1253.9211      3754.1399      6.6946648    
   7850000   299.88293     -194.42773      1241.1086      3728.363       8.5406442    
   7855000   295.93812     -195.63438      1306.6141      3757.3857      6.8883605    
   7860000   293.90482     -193.5115       1311.5298      3746.2417     -0.30644894   
   7865000   297.38811     -202.47479      1268.3163      3725.2139      3.0775903    
   7870000   297.96978     -201.32656      1296.0258      3759.2732      9.1075928    
   7875000   298.92282     -216.98449      1264.9024      3721.0143      3.5233437    
   7880000   303.08962     -202.5698       1278.8034      3786.5914      12.585093    
   7885000   305.6738      -190.44032      1267.0892      3810.1155      4.8432683    
   7890000   297.55045     -189.53662      1219.3444      3690.6318      4.24451      
   7895000   294.84386     -201.10556      1253.432       3688.947       6.5031779    
   7900000   301.1912      -207.02154      1314.2921      3800.6518      9.2630409    
   7905000   297.9647      -199.85899      1261.6265      3726.296       10.625686    
   7910000   300.69275     -199.94553      1321.8769      3810.8553      4.7868802    
   7915000   296.04385     -214.23105      1283.0266      3716.147      -1.6737017    
   7920000   299.533       -194.46622      1304.8478      3788.9345      7.1124279    
   7925000   298.39904     -179.46236      1325.4895      3814.4396      2.3682425    
   7930000   295.52943     -215.8265       1325.1285      3752.0533      4.5755209    
   7935000   302.88191     -204.28338      1334.154       3838.3709      7.639033     
   7940000   306.7119      -192.24892      1289.9538      3840.4546      9.5318978    
   7945000   305.00356     -225.23208      1265.1389      3767.3798      5.0228367    
   7950000   308.4307      -205.39721      1274.8755      3827.5982      16.310513    
   7955000   301.32485     -194.12814      1267.6491      3768.0974      5.2458717    
   7960000   301.41261     -216.31175      1312.7002      3791.7496      8.8487673    
   7965000   297.07475     -227.95931      1249.7399      3678.3509      10.978814    
   7970000   298.49726     -199.5527       1317.0942      3786.8323      13.082945    
   7975000   299.17368     -201.50334      1271.1585      3744.9949      4.4149459    
   7980000   300.79876     -203.42154      1306.6296      3793.08        10.41448     
   7985000   294.29026     -206.23169      1314.1641      3739.6025      2.4772232    
   7990000   300.32271     -203.22414      1280.1816      3762.5722      11.484209    
   7995000   295.80809     -196.87999      1313.0037      3761.367       3.3512922    
   8000000   305.38684     -194.63239      1296.0414      3832.3095      13.312557    
   8005000   299.53833     -193.01906      1285.7696      3771.3511      2.3500914    
   8010000   297.82808     -198.74895      1239.6307      3704.1886      10.972965    
   8015000   295.37695     -206.46721      1286.8756      3721.7961      4.0937048    
   8020000   301.06498     -223.00477      1294.3024      3763.5502      5.1660727    
   8025000   295.19144     -211.48302      1287.9781      3716.224       4.6350852    
   8030000   294.48175     -209.80307      1282.7427      3706.3222      2.9653809    
   8035000   305.10152     -201.10593      1322.3318      3849.5749      14.327921    
   8040000   299.72607     -201.26551      1235.1908      3714.2047      6.6418738    
   8045000   293.19018     -212.83625      1249.0189      3658.0154      10.991495    
   8050000   306.08745     -211.27796      1278.2364      3804.1241      6.5576117    
   8055000   305.26461     -208.16875      1292.0618      3813.7005      8.5067845    
   8060000   292.18557     -205.6623       1273.0876      3680.2744      12.48157     
   8065000   301.18334     -229.28346      1267.9022      3731.9297      8.1330916    
   8070000   305.70196     -204.38817      1265.0964      3794.4267      8.3432578    
   8075000   295.31682     -199.81618      1246.8514      3687.8853      12.903613    
   8080000   295.85667     -205.93505      1247.5183      3687.2609      7.1523218    
   8085000   296.14471     -209.13837      1228.8406      3667.9556      3.6180591    
   8090000   306.81115     -196.47633      1245.9376      3793.0985      9.3415443    
   8095000   289.30388     -202.98771      1266.6769      3650.7689      1.4956109    
   8100000   304.18081     -216.15695      1268.0471      3772.0058      3.6260029    
   8105000   294.81617     -199.00361      1263.5639      3700.9333      4.3994457    
   8110000   306.49791     -211.11551      1283.8414      3813.562       5.0570644    
   8115000   305.4012      -202.60259      1280.2493      3808.6756      8.3988929    
   8120000   304.45379     -217.16969      1321.1937      3826.5808      3.8617806    
   8125000   298.67666     -220.32334      1263.9703      3714.5421      7.7127313    
   8130000   294.37731     -222.76631      1247.5301      3657.2123      7.0138829    
   8135000   299.72554     -208.07285      1251.9413      3724.1432      6.4430606    
   8140000   300.64042     -183.38734      1294.6233      3799.692       9.0607419    
   8145000   289.76754     -217.64431      1291.111       3664.6926     -0.10172167   
   8150000   296.52074     -195.4839       1287.0725      3743.2046      11.109931    
   8155000   305.22166     -213.61875      1253.6309      3769.4356      10.162302    
   8160000   301.45009     -222.51392      1281.2171      3754.3996      5.8530925    
   8165000   298.25372     -204.28893      1255.3112      3718.1353      11.607712    
   8170000   291.92984     -211.28487      1239.9161      3639.1934      14.114988    
   8175000   296.2286      -205.73498      1265.3842      3708.6528      4.4504218    
   8180000   302.05611     -227.17328      1281.0253      3754.9677      8.4879544    
   8185000   298.24609     -210.94533      1290.2041      3746.3036      3.7716803    
   8190000   303.30432     -199.48004      1296.3803      3809.178       7.4690275    
   8195000   299.87576     -208.96603      1278.9149      3751.5669      15.319325    
   8200000   297.72603     -215.99569      1266.382       3712.7805      8.4854331    
   8205000   299.27309     -207.27809      1268.2367      3737.1873      0.45471872   
   8210000   305.67196     -196.1392       1266.0449      3803.3559      6.5083778    
   8215000   297.14339     -204.06681      1282.9439      3736.0611      11.32129     
   8220000   301.02438     -198.07678      1301.4443      3795.257       13.103739    
   8225000   307.53345     -193.1445       1297.0816      3854.0334      6.6362667    
   8230000   304.14806     -217.97028      1245.2758      3747.1283      11.813574    
   8235000   300.28084     -204.71569      1299.7954      3780.3201      14.386214    
   8240000   303.06303     -189.81567      1251.5001      3771.8044      12.393931    
   8245000   295.56006     -197.0256       1271.7059      3717.7055      6.4196266    
   8250000   299.73428     -198.45706      1248.5951      3730.4909      2.3969861    
   8255000   303.48194     -217.88289      1263.7876      3759.7707      2.8373103    
   8260000   300.68707     -192.81676      1255.7404      3751.7968      13.372157    
   8265000   299.11779     -209.51955      1261.9535      3727.2738      6.4885947    
   8270000   302.47924     -188.56155      1292.159       3808.4969      11.395961    
   8275000   304.25364     -192.53426      1305.8287      3834.0613      9.9518165    
   8280000   294.65448     -208.11204      1314.3935      3741.2086      8.7438619    
   8285000   292.77922     -216.25691      1298.9313      3700.8321      7.6246152    
   8290000   305.15107     -217.37844      1364.0049      3875.4185      11.685358    
   8295000   303.34533     -208.36747      1296.6048      3800.8818      11.76886     
   8300000   301.99198     -202.22231      1238.0395      3736.3593      9.5578911    
   8305000   298.55134     -218.717        1288.6619      3739.7194      10.607395    
   8310000   304.57729     -204.41778      1248.4128      3767.6562      13.08586     
   8315000   299.25692     -227.79384      1299.4489      3747.7391      12.187304    
   8320000   302.95221     -228.68655      1285.885       3766.3275      13.538342    
   8325000   304.13828     -206.28632      1309.2112      3822.6602      5.6534981    
   8330000   298.45833     -202.63303      1250.7839      3717.0936      11.805429    
   8335000   298.12405     -212.54757      1257.036       3710.442       7.5121211    
   8340000   304.898       -214.236        1264.1618      3776.4549      7.9357245    
   8345000   303.25792     -208.46002      1236.7584      3740.1612      12.361729    
   8350000   296.97036     -208.71458      1281.2198      3728.142       6.3495294    
   8355000   303.39163     -218.92443      1324.6674      3818.8015      11.160862    
   8360000   304.29192     -212.09064      1294.7456      3803.7642      7.3918855    
   8365000   303.42398     -211.72345      1251.2601      3752.8844      11.328687    
   8370000   297.18242     -219.32993      1334.9037      3773.1068      7.6184818    
   8375000   296.32625     -216.55091      1316.1162      3749.4421      6.4961573    
   8380000   309.4315      -215.36793      1230.9194      3782.621       12.494411    
   8385000   289.63493     -213.38024      1294.4668      3671.1267      4.7135906    
   8390000   300.34177     -205.53521      1349.7839      3830.034       10.457981    
   8395000   309.21489     -207.7139       1270.4107      3827.8293      11.916528    
   8400000   299.59075     -212.07107      1295.6626      3762.6609      1.4241367    
   8405000   297.59819     -211.31622      1258.5092      3708.444       9.0015123    
   8410000   301.73578     -204.5589       1309.9183      3803.6106      10.070644    
   8415000   310.61753     -207.5971       1263.2634      3833.3419      3.2322453    
   8420000   297.62266     -213.41527      1250.8022      3698.8568      10.268004    
   8425000   295.06407     -206.53644      1295.1273      3727.1807      5.8979059    
   8430000   298.70825     -201.46855      1267.6357      3737.3447      2.9345164    
   8435000   301.15759     -206.54451      1304.2721      3790.8083      11.077905    
   8440000   309.16444     -201.6282       1261.1474      3824.2006      2.0256724    
   8445000   295.80127     -207.17346      1275.9296      3713.9383     -2.1291144    
   8450000   303.26288     -209.97716      1254.3549      3756.2849      6.5290285    
   8455000   298.80556     -204.32688      1290.9412      3758.6622      7.1508465    
   8460000   299.79095     -210.71551      1285.9754      3756.1196      13.942274    
   8465000   291.80802     -208.01762      1306.0445      3707.4997      6.0541738    
   8470000   294.66471     -220.52619      1299.2888      3713.7811      3.4335468    
   8475000   295.41983     -207.72458      1262.867       3696.9136      8.3901028    
   8480000   295.4886      -198.57243      1263.6321      3707.4459      10.904771    
   8485000   302.12804     -192.18148      1295.9109      3805.4883      9.9300664    
   8490000   302.26195     -217.38032      1317.4704      3803.0465      8.9494787    
   8495000   291.43488     -212.1341       1298.8464      3692.8484      9.4248442    
   8500000   292.15928     -202.27411      1259.0217      3669.3616      5.266358     
   8505000   297.87083     -203.03327      1226.4531      3687.1088      15.93591     
   8510000   304.38259     -216.91255      1253.3445      3758.352       12.476803    
   8515000   313.88566     -213.53427      1287.7344      3881.1007      7.9709027    
   8520000   297.24703     -219.09557      1285.2747      3724.2899      12.251652    
   8525000   293.22805     -210.14442      1256.5767      3668.6037      2.2004216    
   8530000   297.32751     -210.3458       1244.3323      3692.8171      11.663463    
   8535000   297.66866     -204.14311      1290.8271      3748.5652      8.1708677    
   8540000   303.79013     -224.80601      1281.8802      3773.6963      11.030928    
   8545000   302.97982     -202.57216      1303.1671      3809.9708      4.4268225    
   8550000   304.79605     -218.07046      1276.0392      3783.5861      14.067352    
   8555000   301.83942     -208.7624       1207.8891      3698.3046      13.788689    
   8560000   309.49466     -211.92044      1219.4359      3775.1499      9.3950699    
   8565000   303.19321     -220.88751      1306.4246      3796.8211      4.829147     
   8570000   300.71231     -206.16698      1274.5227      3757.4545      12.401205    
   8575000   302.59615     -214.38233      1312.941       3804.5037      4.1033309    
   8580000   297.80427     -206.44394      1272.0557      3728.7057      10.381607    
   8585000   294.23506     -223.09747      1255.0283      3663.1073      6.4632227    
   8590000   301.54421     -204.13642      1276.9536      3769.3552      9.1473947    
   8595000   301.15439     -218.76712      1284.4292      3758.7142      12.188367    
   8600000   300.40737     -197.70648      1267.173       3755.8385      12.783979    
   8605000   301.64193     -201.08268      1296.4039      3792.7331      12.331009    
   8610000   298.11206     -210.18958      1310.66        3766.3166      3.4990476    
   8615000   304.96511     -201.92599      1319.6097      3844.8129      3.8408224    
   8620000   304.13697     -203.62442      1289.6544      3805.7536      10.106069    
   8625000   300.34949     -184.02961      1280.697       3782.5217      6.6844406    
   8630000   297.25388     -196.46317      1264.7542      3726.463       5.1119491    
   8635000   302.70328     -217.57067      1311.4809      3800.8132      9.6643684    
   8640000   301.18788     -181.72283      1267.2605      3778.8892      6.3689969    
   8645000   304.6017      -207.51689      1318.552       3834.9145      5.636819     
   8650000   294.28981     -211.74369      1258.7954      3678.7178      13.125098    
   8655000   295.12308     -197.29066      1298.2602      3740.0871      3.529396     
   8660000   304.33767     -207.97262      1280.2587      3793.8044      7.9926948    
   8665000   297.98572     -200.33514      1327.5116      3791.8929      4.0883436    
   8670000   294.14122     -193.50539      1257.0607      3693.8927      6.6209773    
   8675000   303.02393     -203.50388      1275.9126      3782.1791      7.0326273    
   8680000   298.68047     -208.12752      1285.4387      3748.2404      7.103327     
   8685000   296.49558     -217.63926      1293.2681      3727.0198      7.4923516    
   8690000   303.82144     -206.89767      1250.5013      3760.5056      3.6315994    
   8695000   301.30781     -208.20655      1274.1645      3760.382       10.90872     
   8700000   297.14276     -210.28187      1251.017       3697.9135      9.4160082    
   8705000   309.86739     -221.25635      1285.4953      3835.2065      9.7445336    
   8710000   300.1333      -209.40676      1288.0268      3762.5411      13.896152    
   8715000   300.22989     -209.83959      1229.7944      3704.7396      7.1655705    
   8720000   291.2726      -204.37179      1267.1651      3667.4782      5.4738147    
   8725000   302.09067     -199.54163      1247.3425      3749.2255      4.6172947    
   8730000   301.73514     -197.49515      1308.6641      3809.4144      7.3591293    
   8735000   302.33399     -198.57842      1286.7503      3791.7724      11.685233    
   8740000   300.17549     -211.36463      1243.1029      3716.0365      6.5713171    
   8745000   299.33665     -213.69933      1281.6634      3744.7611      3.5405726    
   8750000   299.76101     -218.4368       1307.9365      3770.0915      15.046316    
   8755000   293.53495     -216.44995      1257.5361      3666.002       6.7797359    
   8760000   295.74689     -214.41045      1275.1794      3705.4649      10.869618    
   8765000   293.12647     -213.64106      1277.8779      3685.4998      7.5143901    
   8770000   300.97631     -200.14041      1276.8546      3768.1738      6.8857658    
   8775000   303.03153     -212.36556      1269.2441      3766.7168      11.663469    
   8780000   298.05215     -205.15648      1261.7169      3721.8709      7.3799591    
   8785000   303.75241     -200.56091      1271.9639      3787.6877      12.654948    
   8790000   306.79361     -200.77273      1260.5027      3803.2103      1.6944921    
   8795000   298.04212     -208.00987      1258.3578      3715.5687      7.2211159    
   8800000   297.50311     -208.87114      1274.6704      3726.2         11.940166    
   8805000   302.95212     -200.81739      1279.4641      3787.7749      11.503383    
   8810000   296.26011     -220.48336      1345.8882      3774.6902      2.9882026    
   8815000   302.26444     -208.81942      1278.862       3773.0212      5.3637391    
   8820000   300.74831     -216.22932      1243.4946      3716.686       6.7011478    
   8825000   299.07746     -188.96023      1293.1269      3778.646       6.529467     
   8830000   297.42862     -207.81276      1303.0099      3754.9318      13.693027    
   8835000   302.3305      -207.8678       1291.6029      3787.3045      2.1233673    
   8840000   302.97258     -211.60649      1254.3896      3752.0942      9.7452054    
   8845000   298.88478     -213.98955      1304.61        3763.3767      13.098472    
   8850000   292.26799     -220.22846      1295.0676      3688.4252     -0.27554999   
   8855000   296.97531     -207.96926      1300.6036      3748.3153      9.2074063    
   8860000   307.34445     -237.61625      1280.1724      3790.9625      11.511995    
   8865000   295.74139     -217.75878      1268.7122      3695.6002     -2.5849185    
   8870000   301.72878     -212.50719      1272.8999      3758.5813      4.0511055    
   8875000   306.79285     -214.9884       1284.4527      3812.9379     -0.59935701   
   8880000   302.8436      -200.94866      1224.2499      3731.459       10.467448    
   8885000   293.54261     -209.1972       1321.8263      3737.6134      15.510244    
   8890000   306.12835     -212.36638      1232.9624      3758.1274      14.427587    
   8895000   300.26369     -210.11901      1300.7595      3775.7276      4.2492186    
   8900000   303.52941     -219.74822      1250.2507      3744.793       3.4649116    
   8905000   300.13881     -201.42408      1265.4364      3747.9827      11.93377     
   8910000   301.97813     -225.70365      1256.556       3731.2706      5.368477     
   8915000   299.40417     -221.21843      1299.2609      3755.4433      7.2145776    
   8920000   299.76508     -203.70185      1258.8858      3735.8122      6.4302107    
   8925000   297.13162     -215.81319      1273.9679      3715.2335      6.6182809    
   8930000   302.62658     -214.37765      1254.2709      3746.1103      5.1840917    
   8935000   299.93        -217.23562      1263.9262      3728.7937      10.822741    
   8940000   306.7474      -226.14954      1267.1317      3784.0493      6.0963226    
   8945000   299.81165     -198.33786      1290.3571      3773.064       9.1785116    
   8950000   298.77073     -223.8844       1262.2128      3710.0647      4.9156096    
   8955000   298.78514     -213.46291      1321.4892      3779.8915      2.9034045    
   8960000   299.23994     -223.16886      1287.572       3740.3354      6.2561943    
   8965000   295.13104     -213.11332      1310.4921      3736.5675      9.1201467    
   8970000   297.48504     -207.1304       1234.2061      3687.3149      8.1722314    
   8975000   300.95598     -199.99592      1286.4786      3777.7605      13.356218    
   8980000   299.34285     -213.41326      1290.7775      3754.2167      10.425721    
   8985000   306.69289     -207.41242      1286.4288      3821.5962      9.1126319    
   8990000   301.44589     -202.78742      1286.1076      3778.9789     -0.76808164   
   8995000   294.20069     -218.53863      1302.6452      3714.9757      8.6874593    
   9000000   303.55383     -226.85349      1326.394       3814.0495      2.8615125    
   9005000   297.64009     -207.63663      1254.8132      3708.8023      0.95356291   
   9010000   298.26605     -204.93731      1261.2409      3723.5269      12.224156    
   9015000   300.054       -211.91471      1283.3066      3754.6038      3.8733391    
   9020000   296.94257     -211.83418      1308.2649      3751.8189      8.3575284    
   9025000   301.75948     -193.20413      1251.0948      3756.3537      0.87844889   
   9030000   303.90418     -199.19879      1243.5077      3761.9509      7.9378508    
   9035000   306.21411     -221.63323      1295.1288      3811.7939      10.258457    
   9040000   300.38848     -209.69973      1254.8248      3731.3281      9.6481776    
   9045000   303.22221     -209.00797      1267.0401      3769.5756      5.3614448    
   9050000   302.03884     -217.19735      1308.6437      3792.4076      11.359457    
   9055000   299.60346     -210.31741      1340.3504      3809.216       3.4527733    
   9060000   302.36061     -206.43012      1260.2507      3757.6592      8.6909707    
   9065000   299.10795     -205.37583      1278.6323      3748.0085      7.8945246    
   9070000   306.41077     -220.78091      1303.9846      3823.2606      4.0529495    
   9075000   292.72828     -211.69546      1366.1099      3772.1166      0.12648553   
   9080000   301.07134     -219.36026      1280.1802      3753.1294      9.7053928    
   9085000   293.2024      -210.70153      1246.8826      3658.123       2.017393     
   9090000   306.38895     -215.10938      1272.8311      3797.5835      11.463246    
   9095000   300.09085     -206.12024      1272.5981      3750.0194      9.4109048    
   9100000   302.15486     -207.00721      1265.5379      3760.5294      8.0154698    
   9105000   294.73998     -204.04704      1250.3595      3682.0042      5.2540747    
   9110000   289.37025     -197.69827      1271.8176      3661.7926      13.191832    
   9115000   301.79266     -207.18551      1269.0981      3760.6723      4.0530046    
   9120000   300.15899     -214.08911      1294.9893      3765.0509      15.103826    
   9125000   296.72158     -216.71652      1281.2977      3717.9932      12.841207    
   9130000   293.22359     -207.97615      1287.8188      3701.9741      11.961776    
   9135000   296.76639     -207.16695      1297.8435      3744.4892      1.2560496    
   9140000   297.64464     -230.32477      1277.8171      3709.1587      9.5431116    
   9145000   301.03118     -217.70187      1246.937       3721.1854      8.9912365    
   9150000   294.94767     -196.31021      1278.2027      3719.4414      7.8006948    
   9155000   312.70814     -210.48842      1232.1692      3818.0515      11.128141    
   9160000   309.21198     -204.45126      1316.8276      3877.4828      5.2552315    
   9165000   301.66025     -212.08853      1280.6999      3766.1871      14.552103    
   9170000   288.1817      -206.94289      1281.1864      3651.2883      6.0755988    
   9175000   301.84595     -208.13465      1279.9828      3771.0845      0.45410292   
   9180000   302.19531     -229.38736      1282.7542      3755.7273      16.339174    
   9185000   298.51164     -216.17256      1264.0788      3717.3257      8.5831405    
   9190000   308.19818     -199.51604      1299.3584      3855.8831      3.5395678    
   9195000   296.67638     -195.96175      1287.5669      3744.613       9.4999002    
   9200000   294.95691     -204.62836      1286.9377      3719.9408      6.4521962    
   9205000   306.34846     -193.95953      1287.1188      3832.6591      7.190238     
   9210000   307.45191     -190.36588      1296.0806      3855.082       16.824035    
   9215000   306.40024     -203.02372      1283.4661      3820.4052      11.63928     
   9220000   298.08985     -204.57882      1228.5405      3689.6093      10.145743    
   9225000   302.38723     -207.42525      1330.8879      3827.5393      5.576896     
   9230000   309.80573     -206.92042      1318.2603      3881.756       8.3635003    
   9235000   296.81985     -203.90738      1254.7216      3705.1049      8.6613019    
   9240000   297.70047     -212.97108      1266.9825      3716.1771      9.0734959    
   9245000   298.89682     -203.20187      1274.7883      3744.4504      9.2902977    
   9250000   298.80227     -207.17641      1261.3755      3726.2175      11.320722    
   9255000   298.43874     -199.61743      1266.545       3735.6952      7.7113143    
   9260000   305.25234     -202.33468      1267.7479      3795.111       15.282387    
   9265000   294.94565     -191.8557       1312.7527      3758.4278      5.4338301    
   9270000   307.13651     -221.37869      1258.5636      3783.7317      6.5632341    
   9275000   307.11475     -209.20312      1283.6532      3820.8023      9.6425853    
   9280000   296.16491     -203.4527       1235.7452      3680.7265      5.9436249    
   9285000   298.07146     -195.29994      1234.2286      3704.4118      1.1181376    
   9290000   293.57269     -200.72682      1265.4407      3689.9671      5.109042     
   9295000   301.95698     -199.65731      1273.1598      3773.7316      6.2968977    
   9300000   301.74398     -214.10347      1270.8203      3755.0413      10.975359    
   9305000   300.40682     -202.82695      1339.7261      3823.2662      2.4755161    
   9310000   300.59728     -193.19262      1268.4751      3763.3527      2.6487743    
   9315000   307.09813     -217.7384       1290.1172      3818.5824      1.3277305    
   9320000   295.99472     -208.83733      1279.9685      3718.0433      12.392306    
   9325000   301.91127     -200.9919       1278.5801      3777.4086      0.8234938    
   9330000   302.10429     -202.38659      1311.8127      3810.9726      8.0573145    
   9335000   300.79146     -229.90117      1226.4572      3686.3626      4.2764556    
   9340000   296.80077     -211.6512       1266.0409      3708.5098      7.1223942    
   9345000   301.17768     -190.63435      1280.2013      3782.8273      10.382914    
   9350000   301.25867     -216.28997      1262.0032      3739.6978      9.8434979    
   9355000   300.2631      -197.23862      1237.4258      3725.269       3.1474061    
   9360000   300.28291     -198.94112      1324.9296      3811.2474      6.6943817    
   9365000   308.46456     -221.26517      1280.0352      3817.1928      8.6006149    
   9370000   301.56162     -199.40467      1331.448       3828.7371      14.414299    
   9375000   296.93475     -219.33173      1272.2915      3708.278       5.2257085    
   9380000   301.02306     -221.89959      1309.595       3779.5731      5.9093968    
   9385000   294.4112      -191.85732      1257.7815      3698.6758      5.4554013    
   9390000   307.79229     -191.90812      1306.1827      3866.6856      2.4694425    
   9395000   302.41941     -203.15908      1286.5447      3787.7501      12.045904    
   9400000   297.37035     -204.65749      1287.7098      3742.2658      7.0853373    
   9405000   299.25512     -209.65802      1286.2424      3752.6525      12.02603     
   9410000   296.99757     -209.84852      1282.7477      3728.7793      10.098013    
   9415000   296.65001     -206.90483      1321.2572      3767.1244      5.2861688    
   9420000   297.80921     -211.98395      1303.3216      3754.4757     -0.013252089  
   9425000   299.15273     -213.00661      1266.9233      3729.0691      1.475457     
   9430000   292.54694     -211.54723      1293.5606      3698.0939      9.0527481    
   9435000   296.8657      -202.34413      1224.0937      3676.4504      7.3390086    
   9440000   311.13253     -213.05279      1254.6001      3823.8283      16.616865    
   9445000   296.93981     -195.83678      1321.2409      3780.7676      6.0470002    
   9450000   297.55001     -212.18532      1303.747       3752.3819      12.799197    
   9455000   297.74605     -229.84401      1289.0626      3721.7919      5.3213115    
   9460000   300.36408     -215.78701      1275.831       3746.0288      5.827722     
   9465000   299.87855     -216.0425       1272.975       3738.5755      9.2714435    
   9470000   299.34258     -205.57871      1236.2078      3707.4792      9.7216696    
   9475000   301.98567     -207.27064      1266.6088      3759.8239      0.96762098   
   9480000   304.52672     -222.03913      1236.1064      3737.2762      7.9971395    
   9485000   296.53592     -224.7037       1245.1684      3672.2164      10.081845    
   9490000   298.64132     -211.65082      1348.3744      3807.3027      5.942475     
   9495000   300.3774      -200.38424      1271.6094      3757.3291      10.008183    
   9500000   300.22507     -204.80879      1322.4358      3802.3688      9.285455     
   9505000   301.21912     -196.45929      1291.6418      3788.8135      10.097721    
   9510000   296.81718     -213.82168      1281.5253      3721.9706      8.7136066    
   9515000   302.19491     -194.19877      1271.7967      3779.9548      11.681941    
   9520000   303.05132     -205.2993       1251.3969      3756.1128      9.7542714    
   9525000   309.51888     -248.66347      1326.4075      3845.595       7.8195057    
   9530000   297.69142     -211.06571      1273.0911      3724.1101      4.970896     
   9535000   290.2831      -192.30408      1259.2753      3662.8076      5.2877751    
   9540000   299.45918     -198.56979      1298.9114      3778.2343      1.8478588    
   9545000   302.58635     -235.23041      1282.9228      3753.5497      1.1875391    
   9550000   301.83798     -233.08086      1267.9658      3734.05        6.8376748    
   9555000   299.05556     -205.98911      1287.5602      3755.8546      8.1182943    
   9560000   302.56954     -200.4706       1284.653       3789.8894      12.925452    
   9565000   291.73311     -216.51761      1289.2954      3681.5808      1.0412291    
   9570000   300.29689     -199.70424      1253.035       3738.7147      8.9727566    
   9575000   299.33173     -209.39467      1265.8885      3733.2469     -1.7417702    
   9580000   303.25174     -206.07133      1291.3263      3797.0625      4.8611041    
   9585000   308.88157     -205.69284      1291.078       3847.537       19.852451    
   9590000   299.22108     -201.406        1328.6512      3803.0088      15.828838    
   9595000   293.64352     -209.934        1335.301       3751.2537      6.3848924    
   9600000   303.28902     -208.04404      1296.647       3800.7438      8.0291885    
   9605000   291.28131     -213.19128      1262.2937      3653.8652      9.9237802    
   9610000   300.6104      -200.22706      1324.6435      3812.6039      5.8584763    
   9615000   305.07787     -212.58695      1315.1505      3830.7011      4.0051103    
   9620000   300.73866     -203.17143      1305.6021      3791.7652      5.6445712    
   9625000   289.75574     -224.09774      1305.09        3672.1127      5.7698242    
   9630000   294.82896     -217.80567      1294.824       3713.5057      9.6203264    
   9635000   296.49533     -211.33503      1245.3728      3685.4265      5.8645754    
   9640000   296.30018     -201.69004      1314.9048      3762.8584      8.3480805    
   9645000   296.26983     -203.73098      1290.469       3736.1103      4.1889739    
   9650000   296.31737     -204.54536      1265.2256      3710.4776      1.6665158    
   9655000   297.44846     -220.42862      1282.4243      3721.9077      9.775283     
   9660000   312.96904     -215.65048      1266.4496      3849.5029      9.7944854    
   9665000   302.19898     -203.14238      1250.4607      3749.7116      20.04668     
   9670000   303.9256      -224.49599      1270.6849      3764.0224      11.083167    
   9675000   294.66664     -225.29304      1249.1301      3658.8729      6.9673194    
   9680000   297.96685     -226.86084      1295.1748      3732.8617      11.752922    
   9685000   300.88513     -211.81145      1288.2926      3767.1254      2.5023389    
   9690000   306.24932     -206.69286      1264.3361      3796.2564      12.712852    
   9695000   295.48247     -208.67561      1259.9644      3693.6201      6.4176948    
   9700000   302.08605     -222.54739      1301.5609      3780.3968      8.3043342    
   9705000   302.10256     -217.52352      1269.1745      3753.182       4.5019953    
   9710000   303.51294     -217.82574      1281.2237      3777.5412      6.4764637    
   9715000   298.7916      -230.22718      1269.4335      3711.1293      7.0693583    
   9720000   299.69605     -230.25558      1268.4073      3718.1626      7.9643387    
   9725000   299.84057     -220.34333      1318.4548      3779.4148      7.2471835    
   9730000   303.63276     -212.98418      1301.31        3803.5406      2.8273565    
   9735000   293.10737     -219.42329      1255.2547      3656.9236      15.62941     
   9740000   315.98023     -223.76073      1255.121       3856.9914      10.568724    
   9745000   299.88468     -204.56797      1284.9195      3762.0494      6.8169842    
   9750000   293.77421     -197.39761      1311.1897      3740.8475      6.0155243    
   9755000   292.50983     -217.44488      1276.7019      3675.0057      2.9604924    
   9760000   296.08739     -209.47816      1333.5929      3771.8555      7.7410532    
   9765000   299.75851     -212.63979      1290.4375      3758.3672      8.6436896    
   9770000   306.70251     -221.75501      1269.5817      3790.4924      7.9924623    
   9775000   299.77212     -230.5712       1279.0731      3729.1931      4.1189046    
   9780000   298.50732     -211.42652      1301.9817      3759.936       9.1971892    
   9785000   306.93835     -205.39904      1266.2605      3805.6362      8.5850712    
   9790000   302.18229     -199.80524      1310.2068      3812.6456      12.344564    
   9795000   297.34346     -197.30822      1306.6985      3768.3633      1.5115938    
   9800000   293.23313     -211.8153       1251.3186      3661.7201      9.2606928    
   9805000   295.66251     -204.64158      1302.6515      3741.9513      11.453549    
   9810000   302.73469     -216.00487      1289.873       3781.052       3.8119618    
   9815000   300.79171     -197.41124      1255.7711      3748.1687      11.330129    
   9820000   306.0577      -219.85082      1354.3161      3871.3649      6.3844269    
   9825000   314.71965     -211.39831      1333.8747      3936.835       6.2214997    
   9830000   298.50292     -190.02082      1241.2105      3720.5312      9.6495291    
   9835000   297.35124     -209.02659      1288.5617      3738.5779      4.8550845    
   9840000   302.84122     -226.93362      1251.018       3732.2208      10.33774     
   9845000   304.06844     -205.36429      1265.9397      3779.6862      11.138599    
   9850000   300.26401     -226.19217      1269.4612      3728.3589      15.12211     
   9855000   300.80964     -194.86194      1285.9682      3781.0754      2.904778     
   9860000   303.95301     -217.14122      1328.1522      3829.0895      6.5401667    
   9865000   300.78218     -224.61991      1218.5816      3683.6854      13.344518    
   9870000   302.02464     -197.93045      1262.5705      3765.4743      14.616168    
   9875000   297.58734     -204.34282      1324.7033      3781.5145      10.470734    
   9880000   295.87915     -207.5448       1254.592       3692.9258      6.9793549    
   9885000   295.53318     -213.78779      1271.5443      3700.5413      12.692234    
   9890000   295.24491     -200.25723      1288.2574      3728.2071      5.5279284    
   9895000   300.08405     -212.68224      1294.9176      3765.716       10.625659    
   9900000   309.70611     -203.34957      1292.8473      3859.023       3.5789546    
   9905000   302.43042     -204.77542      1273.1918      3772.8793      0.40319842   
   9910000   300.01121     -211.48072      1279.9412      3751.2898      0.066179662  
   9915000   303.10889     -202.52185      1252.7301      3760.7383      9.4250549    
   9920000   298.35954     -208.53336      1274.3392      3733.8652      6.3017173    
   9925000   293.60739     -199.25321      1288.6053      3714.9156      3.1722097    
   9930000   302.68631     -217.07024      1287.0276      3776.7085      11.217518    
   9935000   302.40103     -208.345        1219.3349      3715.19        13.859378    
   9940000   303.44485     -213.34848      1368.5052      3868.6911      11.286985    
   9945000   298.68165     -198.45103      1292.0299      3764.5186      7.4074656    
   9950000   300.77115     -211.45497      1333.0709      3811.2409      7.9047639    
   9955000   299.90986     -218.78469      1302.4743      3765.6126      2.3125514    
   9960000   295.23369     -197.20875      1253.4958      3696.3937      7.9239841    
   9965000   299.4033      -199.45805      1330.5843      3808.5194      7.8928181    
   9970000   301.63302     -205.24972      1240.0434      3732.1259      13.014978    
   9975000   300.80351     -210.28138      1316.1597      3795.7927      5.8793488    
   9980000   297.30778     -207.73724      1256.8452      3707.762       9.5927634    
   9985000   305.2421      -190.10516      1260.4744      3799.9754      7.7172194    
   9990000   307.43676     -220.66164      1276.7873      3805.3574      5.8287699    
   9995000   295.45809     -207.30878      1306.0398      3740.8444      2.5187671    
  10000000   302.70409     -208.45652      1289.0136      3787.4673      6.5518105    
  10005000   297.80362     -213.65822      1285.6552      3735.085       11.730435    
  10010000   309.33726     -220.96088      1289.6349      3834.9009      4.5155016    
  10015000   307.23256     -210.35641      1299.4625      3836.5118     -0.61690397   
  10020000   299.87932     -201.28235      1266.0509      3746.4185      11.714093    
  10025000   294.17663     -197.54851      1276.931       3710.0365      12.944166    
  10030000   306.42159     -207.06453      1277.1466      3810.2357      6.5239191    
  10035000   307.5388      -212.39833      1314.127       3851.873       11.034968    
  10040000   305.17491     -207.40371      1254.4024      3776.0041      1.6232586    
  10045000   299.11011     -219.18545      1250.6575      3706.2433      4.5016179    
  10050000   301.80885     -195.55793      1247.6813      3751.0279      13.490546    
  10055000   298.03985     -195.2715       1270.6942      3740.6232      4.5241851    
  10060000   305.17765     -238.62171      1333.6393      3824.0474      7.2725195    
  10065000   301.71219     -227.25288      1295.8785      3766.6659      11.98947     
  10070000   293.86988     -205.63162      1278.8452      3701.1244      8.2876159    
  10075000   297.00935     -199.00077      1308.2218      3765.2064      4.7089795    
  10080000   299.47971     -219.0751       1309.9825      3768.9838      5.6949669    
  10085000   292.25251     -200.46532      1338.3597      3751.3421      8.8840982    
  10090000   299.43831     -213.79676      1297.085       3760.9945      2.7929844    
  10095000   302.2898      -220.34461      1304.2003      3787.0611      2.8662179    
  10100000   297.95066     -218.34226      1273.5507      3719.6114      1.7819025    
  10105000   301.97058     -203.07413      1290.7771      3788.0538     -0.11002017   
  10110000   296.96956     -206.40331      1278.9872      3728.2134      14.102816    
  10115000   303.42959     -181.83644      1297.4849      3829.0464      7.4207775    
  10120000   295.51271     -191.35966      1318.8077      3770.0498      6.024267     
  10125000   293.63598     -190.17674      1339.4725      3775.115       0.69344903   
  10130000   301.7877      -197.75939      1274.1513      3775.1074      15.529582    
  10135000   301.35088     -192.76742      1275.4914      3777.5331      6.6844158    
  10140000   292.55155     -200.46999      1269.0681      3684.7199      3.715884     
  10145000   292.59188     -201.88851      1291.331       3705.925       11.271209    
  10150000   300.62708     -204.81063      1296.8626      3780.3886      5.7309189    
  10155000   300.85965     -210.935        1276.4188      3755.9002      6.9365718    
  10160000   309.19636     -226.3877       1343.3704      3881.9496      10.312219    
  10165000   299.83717     -212.69619      1303.006       3771.5828      5.4781307    
  10170000   304.59117     -200.4422       1296.4924      3819.8354      12.429847    
  10175000   297.26245     -208.65084      1267.7437      3717.3416      6.5859351    
  10180000   313.89262     -190.41144      1311.6339      3928.1853      7.944766     
  10185000   304.69984     -214.88913      1305.5985      3815.4664      7.0931867    
  10190000   298.81881     -212.12061      1293.1658      3753.2115      6.2457842    
  10195000   303.21203     -207.97842      1261.559       3765.033       8.3797218    
  10200000   295.58793     -211.10416      1264.957       3697.1273     -0.5754332    
  10205000   297.6654      -218.70621      1240.5284      3683.6742      5.120378     
  10210000   297.87356     -221.8879       1268.2307      3710.0562      11.813628    
  10215000   306.47333     -210.97297      1272.0845      3801.7279      7.6107959    
  10220000   305.63098     -207.10854      1226.1998      3752.1749      2.4983373    
  10225000   300.1769      -210.22088      1286.7453      3760.8354      8.5524291    
  10230000   297.95423     -198.03057      1304.7954      3771.1998      6.092264     
  10235000   297.18884     -194.20666      1301.9632      3765.347       3.399566     
  10240000   298.13371     -211.49099      1296.4704      3751.0193      6.9282824    
  10245000   299.07229     -211.4877       1244.4991      3707.4444      6.5533105    
  10250000   300.48355     -196.66741      1235.7975      3726.1833      5.0387157    
  10255000   305.75565     -206.60634      1286.9313      3814.5235      3.8519612    
  10260000   302.00973     -206.48449      1328.6153      3822.8317      5.0889007    
  10265000   297.79776     -205.7784       1269.2989      3726.5561      10.570509    
  10270000   293.82987     -230.08911      1306.1462      3703.6101      7.8594091    
  10275000   307.3744      -217.02433      1330.0752      3861.7249      5.4392278    
  10280000   307.15384     -214.1279       1258.1764      3790.7503      8.6843037    
  10285000   299.16683     -217.07082      1301.9385      3760.1462      8.8226825    
  10290000   294.96496     -218.98659      1303.5694      3722.2864      6.0982794    
  10295000   299.28324     -211.94527      1283.7495      3748.1237      4.4007664    
  10300000   300.91454     -219.84434      1262.6671      3733.73        7.0292005    
  10305000   306.24054     -228.3538       1296.2736      3806.4544      7.0975355    
  10310000   297.69937     -208.14061      1304.0338      3758.0489      4.9073843    
  10315000   301.43704     -199.14333      1243.1908      3739.6272      12.716006    
  10320000   303.38306     -200.8921       1320.6819      3832.7716      15.673673    
  10325000   300.88991     -196.5428       1299.9357      3794.0799      2.6643661    
  10330000   308.30027     -217.70859      1260.0359      3799.2809      6.4401681    
  10335000   298.30632     -214.02731      1342.7014      3796.2575      12.926188    
  10340000   297.84299     -206.33853      1297.8268      3754.9285      8.4950251    
  10345000   307.92874     -212.42043      1266.1584      3807.3693      13.692967    
  10350000   296.25377     -207.19414      1248.1031      3690.1376      8.2095969    
  10355000   299.04001     -210.60689      1271.1171      3734.6547      1.0587399    
  10360000   299.66484     -196.92222      1274.2767      3757.0864      3.4174517    
  10365000   304.9522      -218.15243      1294.9837      3803.845       3.3575511    
  10370000   301.8504      -203.78639      1251.8195      3747.3092      1.7738247    
  10375000   302.19841     -201.16354      1271.3534      3772.578       4.1249042    
  10380000   301.53298     -213.15574      1240.0447      3723.3266      2.4263349    
  10385000   300.04408     -218.84481      1285.459       3749.7374      7.603339     
  10390000   299.35185     -208.16892      1254.2404      3723.0045      5.3393542    
  10395000   301.12907     -211.5232       1320.8421      3802.1446      14.730785    
  10400000   298.86853     -203.53263      1230.8569      3699.9352      2.7490656    
  10405000   286.87797     -206.18605      1235.4845      3594.6847      8.5391826    
  10410000   314.98228     -197.09378      1281.0521      3900.6654      7.4115768    
  10415000   304.49137     -202.12221      1258.1867      3778.9573      4.8300022    
  10420000   301.41171     -204.5777       1291.8861      3782.6615      7.4760437    
  10425000   294.50981     -214.99675      1243.6762      3662.3128      15.092176    
  10430000   301.84793     -210.77408      1291.0365      3779.5165      9.6935592    
  10435000   295.78267     -214.91822      1286.1392      3716.2368      0.14932328   
  10440000   300.68765     -200.35042      1330.5574      3819.0853      10.072525    
  10445000   299.10662     -217.3408       1311.3135      3768.7128      10.307772    
  10450000   303.61661     -204.17889      1250.5763      3761.4678      5.9957209    
  10455000   300.04526     -204.66785      1303.046       3781.512       3.2576367    
  10460000   297.61696     -212.40942      1347.0294      3796.0388      5.5578811    
  10465000   301.28871     -202.63683      1265.5062      3757.1226      12.080322    
  10470000   293.88914     -216.38769      1279.9873      3691.6827      6.6425558    
  10475000   301.41409     -194.28029      1269.1642      3770.2584      8.6768262    
  10480000   292.86412     -192.84826      1253.519       3679.5876      11.584306    
  10485000   303.42544     -224.77107      1235.4635      3724.0532      8.366093     
  10490000   298.20363     -211.14843      1254.8622      3710.3789      10.414248    
  10495000   305.92333     -216.19289      1271.6167      3791.1218      11.641304    
  10500000   307.86382     -204.42814      1252.499       3801.1216      15.321778    
  10505000   294.77062     -224.04328      1285.396       3697.3183      12.033107    
  10510000   301.22617     -213.80455      1259.9776      3739.867       10.620771    
  10515000   294.01552     -216.61068      1310.7574      3723.3599      4.4587359    
  10520000   304.63355     -203.88333      1299.1064      3819.3873      4.8683309    
  10525000   304.1317      -219.06888      1311.3278      3811.9355      7.4726506    
  10530000   302.7097      -215.69146      1286.7783      3778.0473      14.078574    
  10535000   301.23048     -209.74582      1243.1907      3727.1774      4.4155184    
  10540000   299.00505     -199.27439      1276.1139      3750.6713      3.3993409    
  10545000   297.41093     -207.0151       1290.6687      3743.2301      8.7937454    
  10550000   299.58313     -200.66955      1256.8427      3735.1744      5.6361186    
  10555000   300.27636     -197.88514      1293.3315      3780.6467      10.596021    
  10560000   305.24212     -209.22248      1307.313       3827.6969      8.7348339    
  10565000   299.54572     -204.23011      1328.488       3802.9246      6.8334524    
  10570000   293.671       -226.97793      1272.1879      3671.3423      12.756326    
  10575000   295.4512      -199.49863      1269.971       3712.5241      6.3748241    
  10580000   298.57769     -213.85746      1285.7229      3741.8756      7.1085081    
  10585000   302.21274     -213.00434      1261.2922      3750.8042      11.295901    
  10590000   303.04283     -216.23806      1292.123       3785.8243      3.1812835    
  10595000   305.14575     -217.04204      1269.069       3780.7716      10.422685    
  10600000   297.40026     -208.85245      1318.6521      3769.2808      10.576065    
  10605000   295.98023     -191.27904      1312.1258      3767.6293      10.996534    
  10610000   292.06451     -216.59405      1305.6465      3700.819       5.8929964    
  10615000   301.39195     -213.09229      1302.4449      3784.5291      4.300481     
  10620000   300.45097     -223.27499      1284.0122      3747.499       8.8882533    
  10625000   300.77554     -198.67186      1237.4058      3728.3982      14.895168    
  10630000   295.58065     -208.40082      1249.5789      3684.3874      4.7298228    
  10635000   298.40971     -212.17934      1318.5194      3774.8481      5.3945052    
  10640000   301.50053     -202.10844      1297.2277      3791.2667      12.57255     
  10645000   290.5203      -206.8425       1303.0534      3694.1684      7.7578479    
  10650000   298.47693     -225.01887      1291.5728      3735.663       7.7936935    
  10655000   303.60298     -207.75131      1291.5574      3798.7546      5.4990501    
  10660000   293.40116     -219.68658      1302.765       3706.7978      13.424157    
  10665000   295.4383      -217.06418      1267.4753      3692.3474      11.108363    
  10670000   305.51924     -212.81761      1333.3641      3852.631      -2.3332038    
  10675000   299.72767     -232.93797      1234.3053      3681.6611      8.5035752    
  10680000   309.46328     -211.63976      1315.554       3871.268       7.2149189    
  10685000   297.81956     -210.9956       1235.6616      3687.8966      5.9598224    
  10690000   307.69993     -212.16725      1262.773       3802.1909      0.41218085   
  10695000   304.65256     -212.35478      1268.9549      3780.9344      5.3019379    
  10700000   299.68774     -211.82147      1271.7587      3739.8739      7.0551629    
  10705000   297.3464      -194.57956      1310.9398      3775.3597      3.3867423    
  10710000   305.03447     -212.45211      1281.6984      3796.9957      1.2452678    
  10715000   299.43426     -195.65583      1318.095       3800.1091      8.7925569    
  10720000   298.30572     -224.33751      1309.2628      3752.5034      9.1664362    
  10725000   298.76524     -219.05568      1274.9001      3727.5317      7.8820959    
  10730000   295.65883     -201.12616      1256.6828      3699.465       10.007453    
  10735000   295.55773     -208.39616      1270.6777      3705.2859      8.7331365    
  10740000   297.47662     -185.33992      1254.4937      3729.3176      13.531916    
  10745000   288.53218     -206.12281      1297.3375      3671.3935      6.1637148    
  10750000   302.73956     -191.72136      1289.4388      3804.9448      4.3260497    
  10755000   298.32347     -219.3398       1294.5029      3742.8999      9.6381405    
  10760000   298.62617     -209.27462      1239.081       3700.2501      13.01429     
  10765000   300.92823     -208.10255      1276.3224      3759.2495      5.1959969    
  10770000   304.34599     -209.78198      1323.3173      3835.1281      9.020918     
  10775000   300.29892     -200.2197       1301.3615      3786.544       1.4976682    
  10780000   301.0959      -201.22178      1315.4229      3806.7301      9.6929836    
  10785000   303.86945     -211.42495      1305.1169      3811.0233      2.6729487    
  10790000   295.31319     -207.38352      1263.3631      3696.7971      9.874198     
  10795000   292.22565     -195.62048      1261.2431      3678.8301      4.9370736    
  10800000   296.65782     -226.04865      1298.2629      3725.0561      12.089673    
  10805000   296.06807     -202.04402      1266.762       3712.286       11.664945    
  10810000   300.08926     -213.91372      1229.9817      3699.5952      7.0075166    
  10815000   292.35361     -233.04243      1255.6919      3637.0012      9.3562723    
  10820000   298.24992     -208.49718      1297.1386      3755.7205      9.9767774    
  10825000   304.06016     -217.13607      1282.9382      3784.8389      12.045395    
  10830000   305.77467     -215.09876      1294.434       3813.7039      9.1698292    
  10835000   304.32289     -195.62784      1296.7125      3822.4709      10.706694    
  10840000   291.85534     -211.60007      1332.5843      3730.8803      6.6693915    
  10845000   301.14258     -214.67091      1258.1488      3736.4244      3.9472064    
  10850000   297.72513     -205.76422      1273.3043      3729.9262      7.7459695    
  10855000   299.87568     -201.96787      1306.6836      3786.3331      7.6572582    
  10860000   305.22547     -206.0968       1272.91        3796.2707      7.4339501    
  10865000   297.57684     -195.5072       1243.6678      3709.2207      8.7962235    
  10870000   301.69493     -198.09739      1298.1646      3797.9531      6.840763     
  10875000   299.25045     -200.43882      1263.016       3738.6034      10.640777    
  10880000   295.64571     -195.83515      1310.244       3758.1999      5.7472557    
  10885000   308.43203     -226.11614      1275.2681      3807.2838      8.9055088    
  10890000   302.97797     -217.37393      1307.1389      3799.1243      13.207662    
  10895000   302.60365     -226.08661      1273.7226      3753.648       11.594117    
  10900000   292.85901     -205.40211      1283.5267      3696.9959      8.5343883    
  10905000   302.06597     -210.39524      1276.75        3767.5586      13.166249    
  10910000   305.02475     -197.53644      1310.0636      3840.1896      5.5445241    
  10915000   301.49424     -213.72071      1313.3141      3795.6846      6.1606249    
  10920000   296.90753     -192.96043      1265.6981      3727.8126      5.2861272    
  10925000   308.77905     -199.52256      1315.3628      3877.0753      3.7991959    
  10930000   301.35548     -207.0808       1276.6831      3764.4527      10.251128    
  10935000   303.19584     -201.16099      1289.2483      3799.395       7.4935799    
  10940000   300.57854     -201.07648      1316.441       3803.267       7.7237634    
  10945000   305.34747     -210.3281       1280.4853      3800.7056      1.9190852    
  10950000   303.1296      -189.5864       1286.7195      3807.8484      11.813055    
  10955000   300.99224     -206.36819      1319.8843      3805.1182      3.2892634    
  10960000   300.30729     -200.20974      1291.9777      3777.2449      6.0772414    
  10965000   308.16816     -219.25865      1266.9919      3803.5055      4.7702113    
  10970000   299.63746     -197.14183      1262.4109      3744.7562      9.4185237    
  10975000   300.46891     -202.22938      1280.2019      3764.8948      7.9794242    
  10980000   306.98251     -229.80743      1322.4898      3837.852       6.4229668    
  10985000   297.21163     -206.20913      1291.8505      3743.4356      4.4216437    
  10990000   298.93792     -203.71632      1227.4402      3696.9553      11.393817    
  10995000   296.92277     -211.61409      1305.1353      3748.7323      11.124495    
  11000000   302.81659     -209.85857      1290.5428      3788.6004      4.4241451    
  11005000   305.16227     -208.64602      1234.6794      3754.9256      3.6768744    
  11010000   301.31895     -205.06584      1309.4825      3798.9403      5.2792245    
  11015000   295.91519     -210.23941      1240.2065      3676.168       8.0530511    
  11020000   295.83397     -190.27416      1305.7968      3760.9972      7.6959895    
  11025000   299.79059     -209.40523      1235.5971      3707.0483      8.3158066    
  11030000   298.24942     -194.77851      1317.016       3789.3121     -0.45196681   
  11035000   303.09262     -189.35873      1291.0776      3812.1035      9.9189831    
  11040000   302.09522     -204.9031       1277.0688      3773.6312      13.27807     
  11045000   293.88779     -218.57896      1286.2707      3695.7628      3.1226188    
  11050000   301.3014      -213.58547      1267.0699      3747.8512      7.017844     
  11055000   295.64094     -229.05962      1274.2409      3688.9297      2.3684321    
  11060000   307.96172     -218.09855      1324.4945      3860.3221      13.019881    
  11065000   295.29165     -207.18139      1253.3961      3686.8397      4.0375033    
  11070000   293.26968     -227.71501      1315.5547      3710.3833      14.28993     
  11075000   292.73633     -207.54274      1269.2791      3679.5105      12.106189    
  11080000   301.90452     -224.51569      1312.9197      3788.1641      14.636319    
  11085000   295.14757     -210.24367      1286.2718      3715.3647      7.8658123    
  11090000   299.96484     -208.13039      1289.5076      3763.7918      14.820581    
  11095000   305.81468     -194.2877       1294.99        3835.4288      4.6480623    
  11100000   301.55301     -188.93778      1310.7124      3818.3913      1.9920757    
  11105000   300.1871      -217.01254      1294.861       3762.2506      7.3524497    
  11110000   311.51021     -212.85559      1323.6029      3896.4056      8.8886165    
  11115000   294.27643     -197.86421      1259.9358      3693.6181     -1.030321     
  11120000   298.43807     -203.94335      1257.698       3722.5163      11.120698    
  11125000   303.60968     -204.68752      1293.6114      3803.9322      22.959089    
  11130000   300.90923     -201.72743      1291.1136      3780.2459      10.128828    
  11135000   299.10161     -215.85242      1269.7547      3728.5975      7.6766254    
  11140000   302.57322     -206.1427       1273.7777      3773.3748      14.36301     
  11145000   298.27178     -211.64555      1329.1807      3784.8097      9.9422725    
  11150000   298.35497     -216.12555      1285.8662      3737.7592      5.1422706    
  11155000   310.59737     -210.95251      1265.3353      3831.8781      6.7208331    
  11160000   305.03175     -211.49055      1316.4015      3832.6361      4.1047835    
  11165000   304.93505     -200.96629      1249.714       3775.6081      9.7390395    
  11170000   303.05742     -216.70459      1243.8907      3737.2559      6.1147126    
  11175000   297.90378     -209.34605      1229.4749      3684.1126      8.0556595    
  11180000   289.15917     -220.31033      1253.9872      3619.4626      3.6382765    
  11185000   301.89404     -208.55778      1247.6578      3738.7664      9.4636877    
  11190000   306.77342     -195.44586      1280.6631      3828.5171      12.628478    
  11195000   289.19399     -192.17852      1328.4793      3722.3979      5.2836887    
  11200000   304.94606     -191.59663      1299.3581      3834.7203      12.994999    
  11205000   303.18797     -217.43048      1301.5713      3795.378       6.8987249    
  11210000   297.9493      -213.91623      1280.4665      3730.9411      11.038656    
  11215000   302.19955     -206.99658      1294.1366      3789.5384      4.3654309    
  11220000   299.96841     -203.38658      1293.8156      3772.8756      8.4507392    
  11225000   299.87257     -204.15781      1237.8835      3715.3152      18.976986    
  11230000   298.27244     -212.53234      1233.2973      3688.0454      8.6869928    
  11235000   290.29513     -201.40546      1237.9374      3632.4759      4.2863496    
  11240000   301.14344     -211.4941       1307.6137      3789.0738      7.4985247    
  11245000   292.0788      -194.51974      1297.0995      3714.474       5.477304     
  11250000   294.79711     -204.4367       1308.3118      3740.0777      7.5524242    
  11255000   301.57646     -204.65025      1275.6756      3767.8518      5.0838974    
  11260000   300.45487     -203.44385      1298.4967      3781.8496      5.5583756    
  11265000   305.24194     -195.84259      1281.5847      3815.3469      9.1328116    
  11270000   294.41299     -204.48068      1323.6106      3751.8975      14.32002     
  11275000   304.45357     -192.57121      1326.3334      3856.317       7.4568801    
  11280000   297.48998     -211.90475      1281.916       3730.2946      5.2720203    
  11285000   299.05869     -201.86117      1247.681       3720.1312      11.219023    
  11290000   295.39034     -215.10683      1283.8256      3710.2263      1.9847526    
  11295000   300.92045     -200.60859      1315.5398      3805.8913      2.4349457    
  11300000   305.49006     -213.36977      1252.1975      3770.6512      7.2825271    
  11305000   296.79429     -194.32132      1291.3608      3751.1017      6.5321395    
  11310000   301.07495     -208.76749      1320.9988      3804.5731      1.6926327    
  11315000   307.28        -206.9737       1325.8764      3866.7326      9.099652     
  11320000   305.15281     -223.42553      1231.0263      3736.4084      12.407321    
  11325000   298.67287     -216.35996      1245.8192      3700.3205      9.3646205    
  11330000   303.39017     -214.34545      1279.5934      3778.2934      10.570682    
  11335000   297.72345     -203.38807      1284.3982      3743.3813      9.7147261    
  11340000   306.78425     -198.74821      1273.861       3818.5095      7.6957165    
  11345000   308.50098     -210.48262      1302.7246      3850.9905      14.719828    
  11350000   296.3549      -227.50693      1261.0843      3683.7104      3.8246397    
  11355000   299.45347     -188.31343      1271.8436      3761.372       10.508579    
  11360000   300.22279     -201.67621      1232.4677      3715.5128      9.8936159    
  11365000   299.73131     -196.58137      1329.5743      3813.3193      2.5021689    
  11370000   294.41826     -225.25242      1242.0951      3649.6573      15.939734    
  11375000   297.99844     -205.64584      1351.1765      3810.361       6.0214247    
  11380000   299.05694     -215.52857      1261.5233      3720.2905      5.891669     
  11385000   292.69129     -217.71827      1275.2113      3674.8645      15.26624     
  11390000   300.72234     -205.15745      1245.3733      3729.4044      9.7278673    
  11395000   297.99352     -210.97172      1275.5611      3729.3756      1.214117     
  11400000   302.63726     -219.93519      1296.1107      3782.4881      2.1178336    
  11405000   300.76355     -202.32924      1295.0271      3782.2549      8.4270932    
  11410000   299.35425     -227.07796      1271.6235      3721.5001      4.8575954    
  11415000   301.45911     -211.3684       1280.1048      3764.5134      5.7672765    
  11420000   302.75087     -200.45229      1283.2774      3790.1536      6.8370128    
  11425000   298.48031     -208.1614       1285.9694      3746.9473      5.87355      
  11430000   298.13618     -203.87095      1313.4046      3775.5956      4.7243364    
  11435000   300.50722     -202.27802      1315.7851      3800.7719      4.8772095    
  11440000   299.66338     -219.05795      1254.2462      3714.9072      3.8132318    
  11445000   301.67475     -207.13341      1300.7336      3791.3056      13.213304    
  11450000   303.03959     -212.83655      1294.2322      3791.306       0.82364595   
  11455000   297.91292     -205.58924      1270.373       3728.8493      11.691359    
  11460000   295.79355     -200.4517       1308.32        3752.9814      6.1690823    
  11465000   302.87752     -203.86816      1338.3624      3842.9553      5.4714687    
  11470000   301.81302     -230.32165      1256.6433      3725.2635      14.160371    
  11475000   305.60243     -212.17623      1292.2488      3812.901       6.2440924    
  11480000   303.62237     -209.4136       1278.2262      3783.9344      2.9310392    
  11485000   300.54989     -215.41297      1272.9221      3745.1555      12.514906    
  11490000   293.93199     -197.44568      1297.5622      3728.5828      7.9413618    
  11495000   297.88069     -197.70157      1262.2359      3728.3116      11.054817    
  11500000   301.83387     -203.59837      1240.2579      3735.7878      5.6809254    
  11505000   294.23327     -208.01844      1298.1742      3721.3162     -3.7465505    
  11510000   301.07044     -205.01431      1299.1628      3786.4499      9.8110106    
  11515000   291.85526     -202.76949      1283.1998      3690.3255      5.9942333    
  11520000   298.90479     -218.13591      1258.7526      3713.5519      5.1481635    
  11525000   296.14092     -227.81309      1298.1984      3718.6048      10.866577    
  11530000   298.13933     -202.77049      1300.5779      3763.8975      11.680476    
  11535000   301.47884     -198.88661      1242.8785      3739.9454      4.672379     
  11540000   294.55694     -218.409        1320.5336      3736.1795      6.7551007    
  11545000   299.7773      -201.93849      1240.5569      3719.356       7.9933206    
  11550000   300.87776     -204.75461      1288.4915      3774.3153      6.8145192    
  11555000   301.79671     -208.23103      1255.9437      3746.5087      7.5343178    
  11560000   301.40185     -199.88543      1306.723       3802.1025      10.200837    
  11565000   298.58893     -185.40112      1288.2353      3772.9448      10.226101    
  11570000   290.46659     -192.43959      1243.9812      3649.0188      11.445287    
  11575000   297.22802     -207.80482      1245.6078      3695.7438      8.4582827    
  11580000   306.06285     -215.68183      1286.9661      3808.2299      6.3218595    
  11585000   300.32399     -212.82311      1287.0983      3759.9015      12.311573    
  11590000   298.44103     -198.29615      1256.9562      3727.4481      0.89408087   
  11595000   305.75276     -212.47285      1300.4082      3822.108       3.1535169    
  11600000   302.86125     -199.05799      1258.6556      3767.9132      15.352622    
  11605000   294.45081     -199.54521      1277.0805      3710.6411      2.80523      
  11610000   301.2533      -202.20186      1297.8681      3789.6029      7.3350605    
  11615000   299.04531     -202.05426      1231.6243      3703.7618      11.727871    
  11620000   299.62638     -209.24158      1245.9078      3716.0541      5.0528647    
  11625000   299.59767     -206.80608      1278.3293      3750.6544      14.495435    
  11630000   305.09179     -209.19384      1252.3494      3771.4176      13.3454      
  11635000   292.5502      -221.13537      1343.7472      3738.7216      8.5302883    
  11640000   303.96907     -215.57944      1284.6337      3787.2764      6.4564991    
  11645000   302.0414      -225.90357      1293.451       3768.5316      4.8762462    
  11650000   310.899       -215.62097      1228.0074      3792.579       16.003135    
  11655000   304.116       -209.88505      1283.6959      3793.3469      7.6625997    
  11660000   301.19083     -207.45063      1302.321       3788.2483      7.3768204    
  11665000   301.4962      -208.78594      1345.9441      3833.2669      11.417892    
  11670000   293.76216     -207.95856      1357.5866      3776.5756     -0.01278282   
  11675000   294.02247     -195.752        1297.4573      3730.9807      5.9440267    
  11680000   304.84049     -213.68102      1270.9426      3783.2764     -1.4338404    
  11685000   302.20279     -211.9273       1256.6803      3747.1803      6.6409143    
  11690000   301.53254     -201.62914      1218.5143      3713.3188      6.7252245    
  11695000   297.30935     -202.76262      1300.1337      3756.0391      5.4019935    
  11700000   300.15726     -224.3874       1247.9622      3707.7102      11.618321    
  11705000   301.65704     -220.79938      1293.1577      3769.9054      16.384032    
  11710000   301.37886     -203.42851      1233.875       3725.5059      6.0979924    
  11715000   294.85872     -205.72367      1321.3005      3752.3303      11.955024    
  11720000   302.19196     -215.8151       1247.4536      3733.969       7.8876735    
  11725000   294.1793      -211.9866       1213.1926      3631.8839      5.9213068    
  11730000   295.62583     -218.28637      1303.6839      3729.0109      9.6556373    
  11735000   296.88618     -231.74166      1281.8577      3704.9999      3.6272101    
  11740000   302.79659     -215.11651      1285.7284      3778.3493      6.4680554    
  11745000   299.80998     -206.5061       1303.5635      3778.0873      10.114427    
  11750000   307.22397     -201.96142      1249.1311      3794.4985      7.6890748    
  11755000   301.07942     -212.29775      1279.9366      3760.0206      4.1741766    
  11760000   298.48225     -224.8468       1305.7859      3750.0958      9.8742561    
  11765000   302.04195     -207.93663      1267.2382      3760.2906      14.172252    
  11770000   301.21026     -225.42411      1269.0447      3737.1722      12.527453    
  11775000   297.02044     -207.12008      1291.4011      3740.3655      10.219287    
  11780000   298.32045     -207.65516      1240.8982      3700.9528      3.9349131    
  11785000   301.00642     -209.58646      1259.4168      3741.5592      3.6700172    
  11790000   300.83561     -231.06633      1271.8641      3730.9992      10.521766    
  11795000   294.9115      -232.16706      1335.3752      3740.4336      13.694211    
  11800000   299.68251     -222.17892      1231.0996      3688.8106      9.8844815    
  11805000   300.22536     -212.18921      1262.9839      3735.539       10.42333     
  11810000   295.0762      -196.07514      1318.1695      3760.7926      8.0056753    
  11815000   306.19549     -182.36512      1258.8073      3814.5739      11.874468    
  11820000   299.07172     -216.68849      1248.1038      3705.8433      9.5050005    
  11825000   298.14675     -202.4285       1259.9493      3723.6773      13.413554    
  11830000   302.34302     -208.55554      1332.8282      3827.954       1.6891884    
  11835000   297.01046     -212.20258      1256.6412      3700.434       6.3220047    
  11840000   300.07138     -210.00254      1306.1759      3779.5406      17.890417    
  11845000   304.09865     -214.76302      1335.1486      3839.7665      0.42352009   
  11850000   300.8329      -209.11852      1234.8357      3715.8943      12.625186    
  11855000   305.21116     -236.63129      1249.0078      3741.706      -1.461341     
  11860000   305.7113      -217.43862      1257.0067      3773.37        9.0310701    
  11865000   307.35392     -206.90637      1261.388       3802.9726      9.330698     
  11870000   298.31459     -208.4049       1236.8281      3696.0805      7.435135     
  11875000   294.9271      -210.37188      1289.4753      3716.4684      12.844624    
  11880000   295.36937     -208.46429      1222.4475      3655.3032      13.90806     
  11885000   296.47206     -206.53156      1289.5708      3734.2199      2.6533137    
  11890000   295.61992     -213.8816       1279.0811      3708.76       -0.4391386    
  11895000   297.96384     -204.82793      1263.0575      3722.7504      0.92032673   
  11900000   297.36411     -205.79683      1261.2682      3714.6292      7.9596953    
  11905000   304.44634     -218.86697      1295.7394      3799.3626      5.4576583    
  11910000   298.86462     -216.91309      1295.8163      3751.4792      0.37318525   
  11915000   291.22987     -206.47885      1343.0407      3740.8647      8.7952846    
  11920000   305.9991      -212.93084      1281.6316      3805.0764      0.73435883   
  11925000   296.33404     -214.63877      1297.5006      3732.8083      4.6049353    
  11930000   303.20809     -199.89688      1245.8222      3757.3425      13.849412    
  11935000   301.70421     -218.97816      1302.9375      3781.9281      6.8622823    
  11940000   296.19792     -209.30146      1229.451       3668.8787      10.886403    
  11945000   300.512       -195.11083      1301.5589      3793.7557      16.337885    
  11950000   306.43287     -207.2317       1270.6419      3803.6647      8.5173888    
  11955000   300.95869     -207.54827      1258.5123      3742.266       13.299815    
  11960000   301.34603     -211.36803      1269.55        3752.9477      1.6024845    
  11965000   297.42321     -224.87918      1259.8462      3694.6533      6.4153285    
  11970000   296.01857     -214.38658      1268.6591      3701.3978      15.123099    
  11975000   294.5927      -211.69213      1263.862       3686.5445      5.7428143    
  11980000   295.71736     -191.92902      1274.5149      3727.0177      6.7926278    
  11985000   298.77705     -215.49019      1301.8908      3758.1936      6.779229     
  11990000   298.65436     -193.37896      1311.8849      3789.2017      4.7561632    
  11995000   297.00715     -213.53253      1269.6995      3712.1327      10.631206    
  12000000   288.08959     -214.60153      1260.1178      3621.7374      14.519871    
  12005000   301.95294     -205.93899      1267.6816      3761.9356      7.9092547    
  12010000   301.54027     -201.24246      1325.3333      3820.5936      6.4223779    
  12015000   302.40825     -209.14138      1284.9661      3780.0894      7.4996757    
  12020000   295.49713     -194.73113      1268.8601      3716.5914      3.5529533    
  12025000   303.4801      -222.19224      1275.5461      3767.2034      2.2719543    
  12030000   298.37865     -194.53618      1323.1472      3796.8413      3.1417187    
  12035000   304.72334     -208.20673      1289.2781      3806.0385      7.422763     
  12040000   297.47749     -228.02252      1266.6143      3698.7634      0.9142476    
  12045000   298.92385     -209.47425      1307.195       3770.8265      2.9326513    
  12050000   302.26714     -213.86924      1224.2968      3713.4304      10.048829    
  12055000   296.86187     -198.64475      1292.8503      3748.8721      9.3337301    
  12060000   302.41867     -188.90562      1267.3507      3782.8029      10.84913     
  12065000   304.40393     -225.12244      1288.8259      3785.8144      8.9829617    
  12070000   294.58529     -211.73142      1337.2637      3759.8407      7.7439197    
  12075000   302.8177      -187.22411      1255.5089      3776.2109      9.559099     
  12080000   303.92161     -192.23787      1246.8372      3772.3971      10.92337     
  12085000   299.9249      -203.45484      1332.2354      3810.8381      12.024696    
  12090000   301.94192     -207.18244      1271.1654      3764.0775      14.896472    
  12095000   287.90884     -197.1586       1284.454       3661.9001      6.5955974    
  12100000   295.14858     -206.38242      1283.8053      3716.7684      9.5037096    
  12105000   309.87448     -203.50502      1266.1749      3833.7007      11.967486    
  12110000   307.42407     -232.73209      1299.0853      3815.4715      9.7741576    
  12115000   309.68792     -208.89315      1278.1679      3838.6374      9.8970416    
  12120000   301.91495     -197.32367      1282.8994      3785.4291      11.810617    
  12125000   303.88351     -203.67207      1283.5544      3797.3394      8.5611263    
  12130000   292.80348     -204.67435      1317.2851      3730.9854      11.228632    
  12135000   297.37232     -189.25277      1225.7347      3695.7131      10.774241    
  12140000   307.14996     -217.78199      1312.5154      3841.4004      9.7512588    
  12145000   306.14041     -215.54135      1256.7956      3778.8934      4.795597     
  12150000   296.09052     -208.08595      1277.6368      3717.3196      4.7279958    
  12155000   299.29571     -216.16457      1332.9852      3793.2516      2.6616718    
  12160000   301.71289     -202.93849      1331.2409      3826.3488      10.268809    
  12165000   304.18082     -205.81221      1268.6817      3782.9852      11.923752    
  12170000   300.31495     -202.17662      1279.8872      3763.2561      8.2328252    
  12175000   302.62729     -220.54485      1255.2853      3740.9639      6.3374807    
  12180000   301.82666     -193.66372      1275.6664      3781.0665      9.2061905    
  12185000   294.92362     -209.96575      1302.8588      3730.2269      11.08697     
  12190000   293.28885     -216.58178      1301.2076      3707.3409      9.3983494    
  12195000   300.50649     -215.88801      1314.1273      3785.4976      12.298404    
  12200000   301.57582     -220.0779       1349.1013      3825.8441      6.2374913    
  12205000   308.39011     -207.60845      1251.489       3801.6376      9.4773094    
  12210000   296.89483     -203.17512      1295.1613      3746.9475      7.3227329    
  12215000   304.58218     -199.32093      1219.0909      3743.4749      7.5770158    
  12220000   300.89214     -227.44063      1264.4666      3727.7329      10.831434    
  12225000   299.29003     -206.45075      1278.9451      3748.8746      2.824831     
  12230000   302.36096     -205.49233      1272.6421      3770.9916      3.8296009    
  12235000   298.48939     -212.53111      1226.4181      3683.1075      9.8567111    
  12240000   297.21219     -238.46501      1294.8819      3714.2161      8.4574593    
  12245000   299.85203     -196.9533       1272.3452      3756.7977      7.1619151    
  12250000   294.93266     -207.85584      1311.6192      3741.178       4.7961446    
  12255000   301.09913     -223.08328      1284.2678      3753.7424      17.73216     
  12260000   287.68847     -205.55329      1250.7991      3617.8799      3.1918285    
  12265000   305.19731     -219.17801      1301.364       3811.3916      10.105723    
  12270000   298.54243     -220.40489      1287.0771      3736.367      -4.1476177    
  12275000   304.56058     -220.51204      1256.6103      3759.6099      9.0593956    
  12280000   302.3881      -219.24935      1288.5833      3773.4184      1.7166186    
  12285000   290.80641     -225.19662      1294.758       3670.0774      8.1520892    
  12290000   292.84802     -220.53339      1301.8803      3700.1199     -0.68760466   
  12295000   299.26007     -213.18762      1293.2903      3756.215       8.0954983    
  12300000   302.79731     -201.64717      1336.2712      3842.3679      2.6851119    
  12305000   305.52377     -226.37508      1230.3805      3736.1304      10.138646    
  12310000   296.43786     -219.57462      1333.4553      3764.7556      17.030978    
  12315000   302.71255     -194.40021      1266.0991      3778.6847      0.80292916   
  12320000   289.6891      -201.22405      1304.9723      3694.2727      5.3017065    
  12325000   304.70729     -216.05252      1303.3351      3812.1063      9.3238329    
  12330000   295.72075     -204.96719      1255.7066      3695.2016      4.2287249    
  12335000   295.00159     -207.75945      1265.4169      3695.6886      8.1887117    
  12340000   300.25418     -223.80209      1315.8388      3777.0388      13.873129    
  12345000   303.86645     -193.25195      1298.6056      3822.6581      9.8978988    
  12350000   306.51199     -207.11125      1257.7805      3791.6313      6.6945157    
  12355000   298.91248     -212.23939      1271.1822      3731.9467      6.8595888    
  12360000   293.56602     -213.30323      1287.5695      3699.4599      13.691675    
  12365000   299.56534     -223.43425      1276.1165      3731.5244      8.894836     
  12370000   304.19778     -203.18532      1318.0708      3835.1529      8.0016946    
  12375000   298.96438     -217.17567      1250.2455      3706.5379     -0.31227033   
  12380000   302.2654      -235.1096       1274.862       3742.7396      8.8695785    
  12385000   295.09169     -206.0412       1285.6116      3718.4072      1.5918896    
  12390000   292.78177     -195.88933      1335.0848      3757.376       6.0018733    
  12395000   296.79877     -207.38559      1274.0865      3720.8031      6.9949798    
  12400000   292.26525     -188.63757      1323.0777      3748.0018      4.9945645    
  12405000   304.47806     -182.8006       1281.7622      3821.7353      12.662002    
  12410000   302.71941     -197.89862      1327.2529      3836.4015      12.924025    
  12415000   298.66793     -209.6177       1277.3095      3738.5089      13.769534    
  12420000   299.01494     -212.44348      1347.9458      3809.4226     -0.38347696   
  12425000   299.1308      -203.36136      1256.9344      3728.5293      15.35659     
  12430000   295.2537      -224.10747      1280.6032      3696.7813      7.5360598    
  12435000   302.45049     -216.00524      1262.5043      3751.1414      7.3138448    
  12440000   297.71519     -194.95175      1248.2419      3715.5875      4.2175347    
  12445000   307.04947     -218.04116      1307.2633      3834.9906      5.0473082    
  12450000   309.83973     -201.09431      1277.1529      3846.7787      12.041752    
  12455000   298.18337     -204.59649      1290.547       3752.4345      2.4803266    
  12460000   310.74961     -224.00203      1245.2947      3800.1494      8.4819055    
  12465000   301.88243     -214.22678      1294.6381      3779.9739      14.443935    
  12470000   303.16686     -201.07718      1253.8967      3763.868       12.099106    
  12475000   297.46631     -200.88881      1327.7833      3786.9662      8.2659611    
  12480000   295.27889     -202.71814      1259.76        3697.5526     -4.6092891    
  12485000   290.28644     -214.73333      1300.0989      3681.2318      11.480385    
  12490000   298.64928     -209.71318      1291.98        3752.9171      11.557573    
  12495000   299.81884     -228.02497      1236.147       3689.231       13.708858    
  12500000   303.01485     -203.28356      1332.4585      3838.8641      9.4719877    
  12505000   297.46797     -201.85255      1291.3932      3749.6272      11.016804    
  12510000   299.16975     -229.82979      1234.771       3680.2459      10.709636    
  12515000   304.32497     -212.37983      1308.362       3817.387       10.890933    
  12520000   297.3242      -210.94114      1273.9066      3721.7663      10.084923    
  12525000   300.64231     -196.26274      1289.051       3781.2611      10.893268    
  12530000   294.40354     -220.40692      1276.9044      3689.1806      8.0936433    
  12535000   293.98099     -207.87205      1252.9881      3674.0205      7.6782566    
  12540000   293.85454     -212.91125      1339.5543      3754.4168     -1.6603291    
  12545000   304.63882     -223.25662      1343.4601      3844.4149      1.1748507    
  12550000   299.79223     -224.55867      1245.7889      3702.1013      4.9617578    
  12555000   297.27427     -222.43933      1289.5225      3725.4376      13.186795    
  12560000   287.12387     -205.38281      1294.5535      3656.7558      6.3255426    
  12565000   297.40243     -197.79395      1319.9599      3781.6665      12.737169    
  12570000   300.54538     -206.03004      1299.918       3781.4941      2.0804372    
  12575000   294.89911     -211.90509      1286.1548      3711.3644      2.0423135    
  12580000   293.41847     -197.39897      1305.3947      3731.8699      10.048984    
  12585000   303.00332     -196.96958      1284.0386      3796.6551      1.6573313    
  12590000   300.74779     -200.72613      1238.4899      3727.1798      0.55872588   
  12595000   302.47191     -204.36008      1284.5997      3785.0736      6.0068117    
  12600000   297.37198     -240.36023      1276.5644      3695.4324      4.509916     
  12605000   300.59062     -205.38002      1295.7022      3778.3328      3.0086402    
  12610000   296.09485     -211.44407      1349.2385      3785.6019      7.88998      
  12615000   313.90292     -213.14524      1250.6784      3844.5881      10.352941    
  12620000   302.54789     -206.25379      1308.3951      3807.6547      12.752941    
  12625000   305.40056     -204.92795      1288.8167      3814.9119      14.626276    
  12630000   311.34337     -192.04529      1275.1745      3867.2955      11.760323    
  12635000   310.29113     -207.70207      1260.3785      3827.4331     -3.0204436    
  12640000   300.56573     -216.93085      1293.3877      3764.2449      10.53664     
  12645000   290.76822     -210.80644      1314.5829      3703.951       13.357143    
  12650000   299.53023     -207.22636      1281.0531      3752.3549      2.5916135    
  12655000   295.03223     -202.65886      1231.062       3666.7083      5.9148861    
  12660000   299.4057      -219.20329      1289.3874      3747.5987      4.1034983    
  12665000   294.10457     -199.36509      1252.4608      3683.1053      4.7050864    
  12670000   303.0605      -205.39782      1252.407       3757.1065      14.165835    
  12675000   300.43244     -209.67484      1258.0691      3734.9904      10.845672    
  12680000   301.12556     -184.40771      1325.3709      3833.7575      7.5968206    
  12685000   296.0357      -202.7826       1269.9676      3714.4636      8.0804443    
  12690000   306.40787     -201.28272      1320.2255      3858.9738      7.9670897    
  12695000   296.16771     -201.70722      1264.3238      3711.0756      8.1305441    
  12700000   300.87731     -187.26245      1279.904       3783.2159      14.279596    
  12705000   300.73651     -213.30171      1277.7204      3753.734       13.461744    
  12710000   296.82815     -188.48556      1273.5042      3739.3836      8.6337537    
  12715000   289.91886     -194.0863       1297.5747      3696.0675      5.47255      
  12720000   295.06707     -207.59856      1318.6913      3749.7094      0.66426124   
  12725000   300.29297     -203.36319      1286.5202      3768.5059      8.6821824    
  12730000   293.50313     -211.21493      1276.6598      3690.0761      5.0900918    
  12735000   303.58745     -205.15761      1280.2632      3789.9151      11.765424    
  12740000   296.52649     -203.75529      1294.6075      3742.5196      6.9734852    
  12745000   293.24766     -203.09989      1256.0387      3675.2855      16.041253    
  12750000   300.74409     -214.52285      1295.5148      3770.375       5.7366375    
  12755000   300.45043     -228.72853      1319.243       3777.2715      11.236795    
  12760000   302.18271     -232.34252      1299.939       3769.8443      10.236872    
  12765000   303.67739     -224.09329      1231.6151      3723.1356      8.3306181    
  12770000   296.51982     -209.04501      1262.2097      3704.7724      5.1862227    
  12775000   295.54191     -190.71291      1300.0856      3752.2356      8.8772028    
  12780000   299.67617     -215.35009      1281.2239      3745.7071      9.3321599    
  12785000   307.91095     -214.5861       1250.7209      3789.607       8.3883847    
  12790000   295.45204     -220.02907      1297.7383      3719.7684      11.177715    
  12795000   300.0849      -213.53472      1307.2072      3777.1608      9.6748521    
  12800000   299.43319     -216.07534      1263.4581      3725.0431      17.224688    
  12805000   292.75978     -214.3722       1335.4082      3739.0199      9.784209     
  12810000   303.05513     -218.37847      1263.9811      3755.6519      6.1316721    
  12815000   298.42335     -218.04924      1303.0762      3753.6569      14.360339    
  12820000   302.32552     -202.67233      1245.5136      3746.3661     -1.0323594    
  12825000   308.6686      -213.38888      1306.261       3853.1195      11.142863    
  12830000   301.4836      -217.15456      1214.8239      3693.6654      3.724069     
  12835000   293.72943     -196.39311      1289.3399      3719.6017     -0.27280991   
  12840000   309.46743     -208.68301      1234.7443      3793.4522      10.425748    
  12845000   301.89779     -198.32561      1314.1897      3815.5639      11.025976    
  12850000   302.50764     -203.22138      1287.3635      3789.2956      9.5443912    
  12855000   291.48995     -215.52952      1255.6599      3646.7588      16.52626     
  12860000   300.42032     -230.69615      1300.746       3756.5376      1.144048     
  12865000   301.70665     -215.02533      1302.1846      3785.1499      1.1898152    
  12870000   298.54482     -203.37829      1265.712       3732.0498      6.2217233    
  12875000   297.28361     -207.89956      1323.2393      3773.7777      4.1738637    
  12880000   300.83963     -205.32075      1285.9854      3770.902       10.991419    
  12885000   293.71087     -218.49659      1312.4486      3720.441       9.1438091    
  12890000   299.97522     -222.08132      1236.6897      3697.1158      15.399332    
  12895000   298.59151     -218.13002      1253.1994      3705.2032      9.0508335    
  12900000   295.83081     -209.13735      1279.5416      3715.8506      1.1913848    
  12905000   304.56754     -212.46994      1268.8015      3779.9055      6.3629606    
  12910000   302.8835      -196.83614      1305.5692      3817.2476      9.3734489    
  12915000   300.76792     -210.31917      1291.577       3770.854       3.5790656    
  12920000   288.23362     -210.5422       1336.5417      3703.5085      0.15769921   
  12925000   304.57381     -225.42809      1273.1149      3771.3169      1.9828644    
  12930000   294.50318     -192.19899      1271.6265      3713.0016      2.1247161    
  12935000   301.33834     -189.93135      1310.9068      3815.6726      10.420215    
  12940000   303.54069     -206.07866      1282.9711      3791.2839      10.736094    
  12945000   301.75941     -219.65726      1300.8521      3779.6573      9.6731766    
  12950000   295.12955     -227.41311      1236.0251      3647.7873      7.2529132    
  12955000   302.2549      -194.06364      1305.4025      3814.2322      4.0945008    
  12960000   294.70015     -209.5081       1289.6718      3715.4992      2.0777464    
  12965000   293.32795     -184.91558      1289.4476      3727.5967     -1.0342352    
  12970000   297.08446     -198.20377      1251.787       3710.2402      13.484402    
  12975000   310.81804     -209.0702       1274.807       3845.2054      11.258387    
  12980000   301.31901     -190.38187      1269.6506      3773.7929      5.7803405    
  12985000   300.45577     -199.73459      1263.0193      3750.0895      7.9079033    
  12990000   304.86356     -214.58157      1282.9426      3794.5821      5.8993589    
  12995000   298.77215     -234.37455      1258.4423      3695.8168      5.1012414    
  13000000   299.53616     -204.04084      1304.7317      3779.2721      8.5454849    
  13005000   302.59489     -199.16126      1347.5838      3854.3563      10.670974    
  13010000   303.479       -211.6264       1288.0972      3790.3106      4.9389853    
  13015000   301.51825     -199.90268      1234.6727      3731.0759      9.1524889    
  13020000   302.67936     -224.96488      1254.4616      3736.1857      12.400125    
  13025000   296.38538     -219.45575      1302.1361      3733.0859      4.3213601    
  13030000   300.469       -213.75949      1276.2218      3749.3854      4.1747185    
  13035000   303.75318     -220.61195      1289.6965      3785.3762      13.347616    
  13040000   302.84631     -230.83572      1260.239       3737.5852      11.655666    
  13045000   306.18083     -212.95507      1249.1142      3774.1599      11.222262    
  13050000   309.76597     -211.15367      1280.7818      3839.6887      4.7372643    
  13055000   303.39366     -212.58656      1236.5344      3737.0245      10.096381    
  13060000   298.77796     -226.6439       1300.9095      3746.0666      9.5978331    
  13065000   299.0697      -210.89745      1279.9009      3743.4133      5.7663193    
  13070000   303.60733     -203.32816      1329.6891      3841.3483      12.985421    
  13075000   306.31812     -217.77828      1343.2175      3864.6676      6.6565598    
  13080000   294.35735     -224.67495      1284.2733      3691.8683      9.5446369    
  13085000   300.74166     -201.96238      1250.7816      3738.1805      10.504507    
  13090000   299.53467     -216.99879      1290.7249      3752.294       13.154604    
  13095000   291.2411      -216.35767      1307.2244      3695.2699      3.0746878    
  13100000   300.9559      -218.13992      1287.9845      3761.1217      3.0082744    
  13105000   303.38846     -214.81955      1260.172       3758.3826      6.1804327    
  13110000   304.63172     -212.97266      1280.7319      3791.9071      1.3138884    
  13115000   292.92221     -206.77954      1298.0446      3710.7015      6.3783816    
  13120000   293.56514     -205.92482      1309.7508      3729.0117      8.1829426    
  13125000   299.82703     -203.67948      1305.6201      3783.1229      6.8907942    
  13130000   304.52296     -229.26417      1277.862       3771.7731      4.3034193    
  13135000   299.31947     -211.42515      1327.2989      3792.5172      2.9365354    
  13140000   303.54652     -209.64538      1243.6215      3748.4196      7.99043      
  13145000   302.43496     -235.55756      1260.9652      3729.9112      5.8136636    
  13150000   302.89418     -227.07038      1293.251       3774.7907      0.72831333   
  13155000   295.90264     -212.63656      1296.72        3730.1721      0.1580542    
  13160000   295.34916     -207.01971      1342.8993      3777.0188      6.5936448    
  13165000   297.14748     -189.16439      1282.7376      3750.7939      14.13715     
  13170000   292.58453     -212.64812      1300.9317      3704.7002      9.351982     
  13175000   298.8699      -224.32184      1233.208       3681.5094      6.5765009    
  13180000   297.08572     -207.58087      1237.1651      3686.2525      12.700475    
  13185000   309.41566     -209.15615      1261.394       3819.1657      8.0123286    
  13190000   295.96904     -222.79801      1259.7846      3683.6691      7.1535154    
  13195000   292.19363     -194.87983      1263.4274      3681.4687      18.645168    
  13200000   303.75005     -190.63419      1262.3674      3787.9969      9.8174728    
  13205000   300.66821     -195.53082      1290.1843      3783.3579      9.0990232    
  13210000   300.86879     -219.96781      1246.5113      3717.0416      9.6311877    
  13215000   298.38493     -206.96745      1324.4743      3785.7933      14.6415      
  13220000   307.81226     -208.78585      1256.4196      3800.2234      8.1841309    
  13225000   302.73124     -198.31322      1295.5052      3804.3449      9.2311897    
  13230000   296.71743     -188.19831      1223.5149      3688.6915      7.8692595    
  13235000   302.14712     -211.85328      1273.803       3763.8793      6.6319138    
  13240000   299.60167     -204.23885      1302.0188      3776.9469      3.8189728    
  13245000   298.5981      -203.23051      1326.1303      3793.0925      9.6903139    
  13250000   299.47641     -222.2706       1221.7793      3677.5556      1.5213371    
  13255000   296.61197     -211.13444      1287.4918      3728.7892      5.2948332    
  13260000   299.69213     -211.46266      1325.3392      3793.8524      1.8009917    
  13265000   298.00969     -227.49824      1299.2639      3736.6965      3.6185449    
  13270000   295.06355     -209.63745      1314.5214      3743.4691      2.3569761    
  13275000   301.44097     -223.07533      1241.5528      3714.0923      7.8801942    
  13280000   297.14        -198.54714      1326.3298      3784.9364      10.613318    
  13285000   300.50979     -203.96844      1280.7263      3764.0456      7.1185556    
  13290000   296.93109     -195.2671       1304.8049      3764.8234      8.5282082    
  13295000   298.91335     -193.65031      1269.7163      3749.0777      5.8618772    
  13300000   304.22566     -221.47443      1279.856       3778.8983      13.448807    
  13305000   298.8757      -209.8633       1298.8447      3761.6565      9.6501001    
  13310000   309.45052     -225.54253      1195.3476      3737.0448      10.877866    
  13315000   298.12501     -191.49601      1305.5186      3779.9846     -3.6842206    
  13320000   300.57587     -204.93226      1309.0993      3792.0457      5.8148786    
  13325000   301.79869     -207.39328      1258.0626      3749.4831      0.56697548   
  13330000   301.34842     -202.03694      1316.432       3809.1823      11.060896    
  13335000   306.98582     -197.48894      1231.3519      3779.0622      9.5790291    
  13340000   299.02336     -215.78965      1276.853       3735.0589      8.324623     
  13345000   303.43689     -212.52415      1278.7212      3779.6603      10.427938    
  13350000   300.92196     -201.42025      1277.1652      3766.7186      3.2445814    
  13355000   301.07192     -195.08971      1191.1591      3688.3839      15.292447    
  13360000   300.11237     -191.21101      1274.5804      3767.1032      5.4398584    
  13365000   301.2203      -222.42348      1263.8889      3735.1069      6.9171155    
  13370000   298.54288     -215.41873      1282.2625      3736.5426      12.363225    
  13375000   296.12884     -209.73988      1277.4089      3715.7805      5.5074298    
  13380000   299.85516     -209.34172      1279.7919      3751.884       9.8140565    
  13385000   305.73861     -233.90257      1291.2263      3791.3699      13.233918    
  13390000   295.90134     -211.47392      1270.9321      3705.5352      9.1965685    
  13395000   303.9167      -220.37063      1295.5656      3792.9489      3.8740896    
  13400000   295.97712     -222.36713      1257.6456      3682.0333      7.226406     
  13405000   294.03588     -206.90896      1309.3684      3731.8547      9.8348337    
  13410000   300.75351     -198.43565      1294.897       3785.9286      18.552286    
  13415000   300.79138     -207.3105       1242.1372      3724.6326      15.128632    
  13420000   301.07703     -203.37656      1215.5065      3704.4902      9.3443899    
  13425000   304.48592     -194.29148      1268.231       3796.7836      7.8504199    
  13430000   301.87909     -196.29947      1233.9883      3737.2215      12.109274    
  13435000   292.51557     -187.8851       1248.4426      3676.3575      3.6043576    
  13440000   291.81431     -201.3286       1300.2294      3708.4299     -1.0411967    
  13445000   299.03671     -212.88999      1285.3494      3746.5743      12.242982    
  13450000   301.69164     -216.83309      1366.237       3847.2603      6.2105355    
  13455000   296.54312     -202.66075      1291.5054      3740.6608      1.2971459    
  13460000   302.23439     -198.2957       1366.0253      3870.4395      7.7413497    
  13465000   300.24298     -201.15126      1250.9671      3734.7177      3.0025435    
  13470000   296.06991     -196.51012      1250.9779      3702.0523      11.040449    
  13475000   297.01915     -198.81736      1323.2351      3780.4907      17.515083    
  13480000   297.39042     -193.72034      1298.3715      3764.0442      6.9889212    
  13485000   296.96193     -214.29156      1320.118       3761.3878      11.185311    
  13490000   296.67773     -203.51368      1276.1727      3725.6789      7.4040665    
  13495000   302.15017     -217.84548      1276.6436      3760.7549      8.8762761    
  13500000   301.64789     -210.50349      1281.405       3768.3667      3.5458222    
  13505000   286.78362     -214.11815      1210.0629      3560.4872      4.7145891    
  13510000   298.53548     -201.91698      1254.0917      3721.8075      6.6728449    
  13515000   301.37578     -215.74345      1266.8226      3746.111       15.328785    
  13520000   293.05246     -221.9863       1255.7132      3654.3281      7.9829698    
  13525000   299.28648     -212.21502      1279.6827      3743.8161      17.231527    
  13530000   297.41584     -223.10139      1275.3098      3711.8289      6.1138562    
  13535000   303.99117     -208.80259      1290.8077      3800.4249      11.285232    
  13540000   298.03291     -209.14695      1221.4883      3677.4799      10.264114    
  13545000   309.31434     -210.57411      1257.7244      3813.1722      11.306347    
  13550000   288.01423     -208.48122      1285.147       3652.2129      2.6246524    
  13555000   298.49646     -209.08962      1253.8378      3714.0319      8.9398803    
  13560000   300.73372     -207.45873      1266.5693      3748.4008      8.0099587    
  13565000   285.97743     -204.16009      1245.0569      3598.23        9.2338426    
  13570000   293.1284      -201.73425      1244.0126      3663.5586      3.120514     
  13575000   299.53157     -200.87125      1318.3143      3795.9831      3.6716074    
  13580000   303.32279     -194.35511      1339.3425      3857.4302      5.0998652    
  13585000   296.23102     -206.60179      1267.0234      3709.4469      7.7759449    
  13590000   295.11757     -214.94347      1263.4859      3687.6107      12.154308    
  13595000   294.36791     -180.30126      1290.3176      3742.3808      11.315645    
  13600000   298.1161      -208.28624      1276.9631      3734.5593      8.7036589    
  13605000   291.05994     -203.43831      1297.3466      3696.6914      8.5719177    
  13610000   301.59497     -195.63271      1273.4424      3774.8016      10.766719    
  13615000   297.52694     -198.97491      1277.1718      3738.8108      7.873845     
  13620000   295.04645     -200.57094      1291.5819      3729.4432      14.235293    
  13625000   300.61807     -210.12906      1341.9538      3820.0808      10.307248    
  13630000   307.11823     -201.60209      1288.163       3832.9442      6.2384905    
  13635000   298.87622     -215.20283      1263.4521      3720.929       8.5130594    
  13640000   300.6016      -224.283        1301.627       3765.4528      9.9652264    
  13645000   300.56778     -219.47799      1296.5366      3764.865       8.9553712    
  13650000   295.54593     -199.6729       1254.2923      3697.5183      9.5035416    
  13655000   311.47263     -211.81579      1271.966       3845.4724      4.9564403    
  13660000   303.69115     -198.85253      1273.3118      3790.1962      5.415719     
  13665000   297.24142     -209.87785      1252.0904      3700.2732      5.3581213    
  13670000   303.30368     -214.69556      1270.0826      3767.659       13.474793    
  13675000   302.33803     -202.13945      1305.3102      3806.8075      7.5531732    
  13680000   301.05146     -184.04329      1267.3932      3775.4816      6.3608022    
  13685000   299.27069     -212.27584      1278.4345      3742.366       7.2730083    
  13690000   295.8101      -195.96097      1265.7659      3715.0661      6.1053893    
  13695000   299.07433     -232.88166      1282.367       3723.9367      1.788765     
  13700000   304.33381     -197.44331      1284.201       3808.2415      5.0889366    
  13705000   300.39474     -193.68866      1287.7226      3780.293       6.0632102    
  13710000   305.05668     -219.90562      1261.6469      3769.6893      18.447451    
  13715000   301.76462     -222.91993      1312.3564      3787.9455      7.6561753    
  13720000   297.65297     -217.35778      1290.7055      3735.0887      5.6392248    
  13725000   299.07493     -212.44216      1218.4043      3680.4188      3.4505033    
  13730000   301.46152     -200.52159      1320.1034      3815.3804      7.6670487    
  13735000   301.10451     -221.01892      1297.7786      3769.3657      5.3151564    
  13740000   297.2595      -209.75901      1248.5348      3696.9982      6.8107128    
  13745000   305.85162     -199.03998      1291.0819      3827.0987      5.242569     
  13750000   309.51831     -201.67012      1241.1944      3807.3701      12.288405    
  13755000   300.34304     -220.01776      1270.483       3736.2619      5.0170458    
  13760000   294.9454      -198.19319      1296.0567      3735.3922      7.1727673    
  13765000   301.38664     -209.89772      1291.3882      3776.6194      6.5520733    
  13770000   309.95301     -212.96226      1279.6178      3838.3887      10.923687    
  13775000   307.36413     -228.83958      1251.042       3770.7847      9.7258318    
  13780000   304.45862     -198.38626      1305.5007      3829.7144      2.2097292    
  13785000   294.54203     -204.17661      1310.8201      3740.565       3.7361804    
  13790000   299.62865     -213.04926      1281.324       3747.6831      1.996435     
  13795000   297.91779     -201.23947      1264.6848      3727.5543      11.518704    
  13800000   296.48187     -212.87981      1331.1659      3769.5546      3.7803788    
  13805000   302.13954     -230.5335       1327.578       3798.9063      2.3862119    
  13810000   306.92427     -211.9721       1265.3269      3798.0036      1.759492     
  13815000   298.59436     -203.41702      1304.7341      3771.4763      4.6657368    
  13820000   305.07374     -205.75631      1306.333       3828.6774      9.1315945    
  13825000   299.75025     -219.00227      1263.398       3724.8914      10.036667    
  13830000   299.03485     -210.09164      1308.3925      3772.3991      1.9614865    
  13835000   308.88837     -227.54728      1237.5421      3772.2075      15.713287    
  13840000   299.71003     -207.24738      1275.991       3748.8797      5.0535239    
  13845000   300.33601     -214.21256      1281.4084      3752.9296      12.667592    
  13850000   298.99398     -219.88274      1298.6483      3752.4983      7.5317481    
  13855000   304.91204     -184.79021      1317.5486      3859.413       2.3951329    
  13860000   304.12554     -207.2877       1246.0713      3758.405       14.863802    
  13865000   300.81973     -215.20505      1232.2778      3707.1322      5.770196     
  13870000   301.5223      -210.11883      1311.3177      3797.541       9.3533208    
  13875000   292.73321     -213.84242      1259.9594      3663.8632      5.3817581    
  13880000   299.47081     -216.79982      1257.239       3718.436       5.0815064    
  13885000   301.55638     -190.03065      1295.3771      3801.9934      9.4445562    
  13890000   299.74236     -207.19574      1265.5501      3738.7794      8.3095646    
  13895000   307.32332     -218.62292      1268.2279      3797.8223      7.0287653    
  13900000   298.8904      -207.09736      1301.3631      3767.0723      10.754867    
  13905000   293.34327     -199.264        1246.1455      3670.0832      13.119464    
  13910000   299.27432     -209.84099      1272.4788      3738.8776      2.7432415    
  13915000   292.04881     -220.34147      1273.7795      3665.0642      8.9095466    
  13920000   301.36858     -220.2119       1292.1494      3766.9049      5.0013072    
  13925000   298.15177     -204.45601      1276.085       3737.8304      8.7286943    
  13930000   293.3447      -212.90739      1291.9425      3702.2496      11.022358    
  13935000   294.94163     -199.93109      1230.1569      3667.7207      10.60396     
  13940000   298.46552     -216.63034      1306.6193      3758.9961      12.457299    
  13945000   304.00449     -219.89351      1232.6153      3731.2607      2.3106323    
  13950000   294.57445     -226.02238      1242.9487      3651.1378      12.456212    
  13955000   302.62341     -218.95335      1287.3326      3774.568       10.423036    
  13960000   299.08688     -206.64808      1283.1208      3751.0362      8.2194477    
  13965000   301.70883     -211.305        1291.0651      3777.7703      1.9762322    
  13970000   310.40535     -208.14951      1331.3359      3898.9645      12.952318    
  13975000   297.41395     -216.19877      1252.6948      3696.0995      14.159492    
  13980000   304.04293     -228.82243      1309.4832      3799.5434      6.9166123    
  13985000   300.21041     -209.99646      1298.397       3773.0112      9.3162734    
  13990000   299.48716     -197.52052      1309.2585      3789.881       2.064082     
  13995000   301.81222     -230.56547      1282.5139      3750.8832      11.755264    
  14000000   307.77926     -212.44781      1259.7215      3799.5683     -1.9247404    
  14005000   298.10278     -199.80551      1268.2357      3734.1935      10.219331    
  14010000   307.48346     -203.71008      1269.9083      3815.8475      7.8319619    
  14015000   290.53913     -198.37409      1267.611       3667.3628      8.6894823    
  14020000   307.59854     -223.14454      1301.1929      3828.7268      7.2730255    
  14025000   294.14515     -218.47036      1284.4328      3696.3349      9.4201214    
  14030000   299.28335     -200.14063      1242.8509      3719.0307      5.9958288    
  14035000   296.77581     -199.11043      1320.1456      3774.932       4.856623     
  14040000   300.38933     -197.81697      1293.4462      3781.8398      16.664119    
  14045000   290.09288     -219.11491      1242.7705      3617.7909      4.0764616    
  14050000   297.21021     -205.42331      1288.2453      3740.6035      7.0334186    
  14055000   302.53302     -205.87591      1300.4935      3799.998       12.303075    
  14060000   299.93395     -187.90611      1302.3342      3796.5665      13.54213     
  14065000   299.28109     -203.21984      1261.6699      3734.7503      6.727937     
  14070000   298.15574     -199.66699      1307.5087      3774.0785      10.290434    
  14075000   298.47263     -209.37229      1335.8366      3795.5349      0.14688098   
  14080000   298.01347     -216.65132      1272.5359      3720.8492      8.4563425    
  14085000   302.92436     -212.68892      1252.4365      3748.6276      8.2629085    
  14090000   299.39175     -202.00146      1258.5437      3733.832       6.1726836    
  14095000   298.22099     -210.80466      1330.1495      3786.1652      4.1340142    
  14100000   300.50492     -212.94587      1295.5487      3769.8471      11.309433    
  14105000   298.57367     -224.10684      1309.2762      3755.1436      2.8779314    
  14110000   299.33725     -200.71692      1261.366       3737.4516      8.6188619    
  14115000   301.95285     -212.75159      1287.6059      3775.0465      12.097789    
  14120000   308.25092     -214.55289      1293.996       3835.9554      3.8617982    
  14125000   301.9199      -210.10239      1241.9107      3731.706       5.0017203    
  14130000   296.8447      -203.73886      1207.1004      3657.8745      3.0848651    
  14135000   298.66706     -203.691        1307.1662      3774.2845      6.9066515    
  14140000   296.51171     -217.6022       1260.9964      3694.9295      7.9484917    
  14145000   307.9787      -221.23417      1284.5681      3817.4119      10.936288    
  14150000   295.60658     -227.54667      1265.5347      3681.4292      9.1361073    
  14155000   297.55034     -206.00175      1281.3888      3736.2102      11.046304    
  14160000   311.64837     -215.16845      1314.8262      3886.5516      1.3626815    
  14165000   304.2334      -233.81385      1272.2876      3759.0596      5.1437027    
  14170000   299.32301     -217.12437      1249.3404      3708.8912      9.2429093    
  14175000   291.69612     -208.71479      1285.3138      3685.0712      9.4090473    
  14180000   303.44409     -195.17145      1237.9766      3756.3327      14.555647    
  14185000   298.76385     -219.23231      1287.3364      3739.7789      5.1100494    
  14190000   304.74195     -203.78881      1311.8331      3833.1779      8.2135675    
  14195000   300.72886     -212.30561      1282.0929      3759.0341      6.9543297    
  14200000   297.76136     -207.94231      1271.7007      3726.4685      6.7627627    
  14205000   300.96795     -203.40246      1253.4723      3741.4548      6.9075316    
  14210000   294.81065     -190.94979      1264.7768      3710.1507      4.0023179    
  14215000   300.93789     -187.81936      1221.2618      3724.5585      11.825319    
  14220000   300.07655     -208.77968      1282.5853      3757.2192      8.9487621    
  14225000   307.26627     -215.78358      1363.1906      3895.1142      2.390311     
  14230000   303.12536     -215.39389      1303.6293      3798.9128      10.86594     
  14235000   298.55104     -202.00223      1298.5724      3766.342       6.8554188    
  14240000   299.33284     -199.66251      1306.8035      3783.904       5.1419965    
  14245000   301.79061     -203.58723      1300.2892      3795.4435      9.9801509    
  14250000   305.9913      -212.23798      1315.5022      3839.5701      8.6550376    
  14255000   302.66895     -205.12722      1270.7338      3772.2025      9.3059692    
  14260000   300.28049     -214.67128      1280.0916      3750.6576      4.8047263    
  14265000   298.72131     -201.52343      1317.2569      3787.028       3.4942535    
  14270000   300.88485     -224.05882      1308.6899      3775.2729      2.4142449    
  14275000   297.342       -206.34217      1293.7485      3746.3664      3.9632206    
  14280000   297.88082     -211.04191      1263.9113      3716.6478      11.424618    
  14285000   302.68577     -220.50607      1277.553       3763.7933      9.7560751    
  14290000   299.18969     -222.28142      1263.7957      3716.9972      13.912623    
  14295000   303.73876     -208.38295      1299.7732      3807.5528      7.2017014    
  14300000   296.42662     -208.02333      1276.5196      3719.2706      4.0458333    
  14305000   299.30018     -208.75071      1303.3196      3771.0398      0.98405134   
  14310000   296.76457     -224.15397      1270.997       3700.6395      10.498255    
  14315000   299.43269     -216.7892       1280.9993      3741.866       0.30951027   
  14320000   300.04721     -217.63802      1296.9618      3762.4751      14.730075    
  14325000   301.04561     -218.80177      1286.2977      3759.5753      6.5662505    
  14330000   311.58678     -199.23008      1229.8358      3816.9487      15.964146    
  14335000   300.77478     -198.82571      1305.9458      3796.7775      1.4511914    
  14340000   289.96492     -192.05441      1252.9632      3653.8998      8.3686512    
  14345000   292.6791      -186.64572      1309.5047      3740.1215      8.262543     
  14350000   297.86825     -195.67536      1322.0012      3789.9918      16.350849    
  14355000   299.6361      -215.0744       1258.8205      3723.221       2.7039479    
  14360000   297.10054     -207.0761       1336.4925      3786.2172      7.354884     
  14365000   299.42868     -217.82016      1250.5346      3710.3345      10.892542    
  14370000   292.42225     -203.10569      1227.111       3638.9709      5.1548605    
  14375000   300.31932     -203.07502      1297.9946      3780.504       4.0179427    
  14380000   299.64622     -208.55549      1284.1527      3755.1627      7.4722941    
  14385000   297.51589     -200.31062      1248.9154      3709.1199      9.5359161    
  14390000   298.51381     -202.24405      1253.989       3721.1838      2.6701697    
  14395000   298.38062     -200.10528      1243.6334      3711.7759      7.5282704    
  14400000   296.06441     -197.35521      1294.7526      3744.9327      6.892389     
  14405000   305.14711     -205.57916      1299.7434      3822.9209      6.2894979    
  14410000   301.48821     -200.73009      1263.6054      3758.9125      11.358507    
  14415000   298.35694     -231.20368      1257.5356      3694.3681      10.105054    
  14420000   304.67258     -198.15443      1272.5453      3798.9041      1.2900114    
  14425000   295.26755     -200.65269      1261.2827      3701.0394      9.6614339    
  14430000   298.8499      -216.62396      1286.9641      3742.7845     -0.21427837   
  14435000   297.33892     -194.09752      1312.3173      3777.1524      7.7048321    
  14440000   298.62298     -202.21847      1261.9419      3730.1386      8.9199665    
  14445000   292.14917     -197.44645      1325.056       3740.1331      3.5202635    
  14450000   303.9132      -202.15605      1299.2119      3814.7784      2.2544163    
  14455000   303.17963     -215.97532      1285.7436      3780.931       10.7234      
  14460000   304.08165     -199.64618      1269.1245      3788.7073      6.4871198    
  14465000   296.29303     -199.36582      1255.8897      3706.1037      4.0178905    
  14470000   295.89426     -215.80079      1263.2048      3693.4178      8.6096416    
  14475000   300.30825     -212.93464      1264.6319      3737.1829      6.695201     
  14480000   301.66049     -212.52662      1305.7941      3790.8453      3.935409     
  14485000   294.83051     -207.50576      1244.3819      3673.3774      8.225384     
  14490000   301.49454     -202.50585      1302.4383      3796.0263      11.680129    
  14495000   293.01118     -219.9951       1271.4318      3671.6687      0.25268529   
  14500000   296.02515     -204.67585      1263.363       3705.8714      4.5284045    
  14505000   300.69405     -207.05277      1294.0086      3775.8914      10.474454    
  14510000   299.76479     -227.29518      1288.9751      3742.3056      10.057961    
  14515000   300.29192     -198.92187      1242.2923      3728.7099      7.3072744    
  14520000   289.55206     -220.47233      1272.1413      3640.968       13.098084    
  14525000   293.0134      -215.86812      1291.3054      3695.6892      6.8418958    
  14530000   298.66315     -214.20217      1248.8245      3705.3967      11.332105    
  14535000   297.90862     -187.04594      1290.296       3767.2771      7.0842143    
  14540000   302.44666     -203.99901      1296.4779      3797.087       9.2850447    
  14545000   298.24288     -205.64001      1307.8322      3769.2083      6.6221194    
  14550000   294.79324     -202.48798      1267.648       3701.328       10.742281    
  14555000   302.1369      -214.90588      1319.2643      3806.1965      12.965053    
  14560000   301.46837     -212.84363      1260.341       3743.3571      8.4494866    
  14565000   301.45508     -223.78178      1281.326       3753.2852      1.8852121    
  14570000   295.92906     -211.00064      1238.592       3673.9163      9.9610166    
  14575000   296.94013     -217.47944      1287.3207      3725.2076      7.5488941    
  14580000   297.09464     -205.74678      1243.9371      3694.9384      11.168009    
  14585000   302.58429     -229.97537      1233.9237      3709.7872      3.02842      
  14590000   298.70865     -221.72454      1304.9604      3754.4171      11.865248    
  14595000   308.2573      -199.0588       1253.7383      3811.2488      14.661548    
  14600000   305.40115     -235.78069      1283.9852      3779.233       17.1126      
  14605000   298.78054     -226.22666      1273.0477      3718.6451      8.6939373    
  14610000   300.0463      -200.97117      1319.5429      3801.7148      3.9005892    
  14615000   308.22537     -224.45293      1276.8861      3808.717       12.112729    
  14620000   299.14811     -207.97694      1298.8856      3766.0197      4.1550335    
  14625000   301.05215     -208.51941      1313.3725      3796.991       6.6580061    
  14630000   306.03363     -189.63365      1246.7566      3793.8074      8.0257015    
  14635000   292.54179     -226.64506      1305.0113      3694.4008      0.52869704   
  14640000   304.07291     -217.16445      1308.2053      3810.1917      10.650859    
  14645000   294.0822      -201.23568      1314.3068      3742.8807      14.785057    
  14650000   301.7823      -218.51652      1330.9849      3811.1355      1.7364641    
  14655000   297.87744     -226.78766      1263.9664      3700.9269      9.0733956    
  14660000   305.19897     -217.64471      1292.915       3804.4907      12.770595    
  14665000   302.24048     -213.86752      1271.4451      3760.342       11.608196    
  14670000   291.01399     -218.1476       1297.7317      3681.9564      1.5697467    
  14675000   296.13544     -200.26113      1252.5761      3700.4855      2.4494726    
  14680000   289.76623     -237.72178      1262.0676      3615.5601      9.37118      
  14685000   304.05957     -210.78677      1262.3759      3770.6206      9.8294814    
  14690000   297.68581     -214.41277      1278.2501      3725.8719      6.2570718    
  14695000   295.53646     -210.88004      1275.0385      3706.9726      13.377372    
  14700000   306.88996     -211.37054      1300.5937      3833.5652      6.1508131    
  14705000   301.97949     -210.56008      1282.8739      3772.7443      2.4463173    
  14710000   301.3498      -220.49964      1294.9227      3769.2226      8.2469184    
  14715000   296.82116     -217.57456      1285.4671      3722.1951      10.590761    
  14720000   296.0404      -204.86054      1230.8088      3673.2688      12.268288    
  14725000   299.58653     -211.09605      1297.0136      3764.9491      5.259215     
  14730000   295.43258     -202.87313      1317.1557      3756.1677      8.750633     
  14735000   309.47247     -222.67564      1316.1713      3860.9316      0.41722123   
  14740000   297.01276     -219.28296      1315.5976      3752.3305      7.5387821    
  14745000   293.77958     -207.20804      1266.6692      3686.5645      1.3885118    
  14750000   294.83225     -190.9385       1281.0465      3726.6247      2.1817427    
  14755000   296.29362     -195.61311      1315.0386      3769.0105      6.0418428    
  14760000   294.84039     -211.92563      1246.4847      3671.1486      4.8343896    
  14765000   293.44166     -198.93733      1243.794       3668.9382      8.4933262    
  14770000   297.31639     -202.867        1300.7958      3756.6599      9.305534     
  14775000   301.1585      -206.05105      1292.5816      3779.6194      4.1263215    
  14780000   302.60122     -200.71859      1309.6863      3814.9581      5.3202118    
  14785000   303.26317     -197.53931      1279.935       3794.3054      9.3919509    
  14790000   301.79176     -212.41         1219.7633      3706.1051      6.20629      
  14795000   295.75649     -209.55968      1283.1254      3718.3475      12.759648    
  14800000   292.16159     -209.7019       1309.9538      3712.8865      5.1932176    
  14805000   289.84554     -207.0451       1256.3588      3641.2372      16.773584    
  14810000   300.59242     -200.69906      1246.104       3733.4316      5.7951373    
  14815000   295.2245      -211.35502      1282.2077      3710.8772     -2.6127031    
  14820000   305.52636     -209.90383      1265.8082      3788.0525      16.270665    
  14825000   305.65496     -204.63029      1241.6903      3770.3582      3.6423591    
  14830000   307.63016     -210.60676      1259.3752      3799.7296      5.9987041    
  14835000   297.07296     -192.92368      1242.8997      3706.5302      8.1982223    
  14840000   294.71539     -206.43534      1246.0665      3675.103       1.4079185    
  14845000   298.75724     -222.1007       1306.089       3755.604      -1.7094469    
  14850000   301.79491     -207.03764      1235.6274      3727.3697      9.1788983    
  14855000   300.90957     -196.06969      1307.1679      3801.961       8.3550519    
  14860000   307.46335     -220.37058      1294.4427      3823.5416      7.5613216    
  14865000   306.04237     -205.20387      1281.54        3813.0986     -1.6504331    
  14870000   300.52843     -208.56432      1277.2889      3756.1791      11.38459     
  14875000   309.6112      -208.48193      1280.1857      3840.3803      8.026991     
  14880000   300.51954     -197.28329      1312.9248      3803.0165      5.4833693    
  14885000   309.18909     -214.77981      1357.1732      3907.2952      2.792449     
  14890000   296.37428     -214.59407      1302.9472      3738.6595      4.4407478    
  14895000   307.20618     -201.126        1268.9219      3814.9657      6.3226985    
  14900000   300.22645     -213.90002      1244.8239      3715.6779      7.4788343    
  14905000   304.63188     -217.01035      1264.7149      3771.8539      9.8321459    
  14910000   308.06804     -220.33584      1313.7093      3848.2504      9.6925239    
  14915000   286.38052     -216.85219      1299.6555      3643.7411      4.1754997    
  14920000   307.34758     -200.87365      1253.684       3801.2446      14.371483    
  14925000   302.30225     -210.36439      1263.2538      3756.2061      8.0993528    
  14930000   293.79696     -219.98485      1293.133       3700.407       10.68324     
  14935000   302.82525     -206.93573      1275.6664      3776.7244      5.5697231    
  14940000   299.42378     -212.50912      1254.6477      3719.7148      9.2335877    
  14945000   303.22492     -200.76331      1308.1104      3818.9148      4.5691267    
  14950000   299.14881     -201.14065      1281.6343      3755.611       13.399411    
  14955000   300.65394     -220.7894       1327.6991      3795.4866      0.52487978   
  14960000   293.67267     -217.16467      1255.3151      3664.2977      3.4890952    
  14965000   297.23911     -228.49429      1361.2024      3790.7481      3.9489701    
  14970000   310.74673     -193.31215      1271.6993      3857.2181      6.2576123    
  14975000   301.164       -205.16464      1260.2774      3748.2508      8.7605861    
  14980000   298.53952     -187.41614      1258.3806      3740.6333      1.3862011    
  14985000   300.56177     -195.22977      1308.3013      3800.8241      9.1501407    
  14990000   296.75035     -200.51569      1299.4463      3752.5999      12.079535    
  14995000   301.91835     -210.37015      1315.4904      3805.004       5.9816589    
  15000000   300.60862     -202.0947       1276.3287      3762.4055      11.685061    
  15005000   299.86181     -211.68177      1286.1396      3755.9511      1.2785722    
  15010000   297.80245     -199.50077      1285.4743      3749.0511      5.7462251    
  15015000   298.00869     -219.07265      1302.4033      3748.2525      6.3994774    
  15020000   298.40986     -203.81434      1280.1706      3744.8655      8.3496148    
  15025000   302.30837     -206.81473      1265.3916      3761.9483      3.5921421    
  15030000   298.95554     -209.43686      1313.283       3777.2352      8.0449964    
  15035000   301.15232     -205.43157      1297.0745      3784.6765      4.1957827    
  15040000   296.16762     -205.64108      1276.2442      3719.0614      10.520508    
  15045000   299.3607      -209.77184      1296.4684      3763.7087      11.314095    
  15050000   290.46757     -202.23462      1321.0905      3716.3418      9.4411134    
  15055000   294.61816     -201.03544      1306.8452      3740.4121      9.7063353    
  15060000   300.15494     -206.96348      1279.2477      3756.3988      9.927393     
  15065000   302.05327     -217.99304      1289.0314      3772.1286      12.97544     
  15070000   302.54912     -215.2616       1279.782       3770.0447      8.6056774    
  15075000   308.81758     -214.02728      1279.4658      3827.0181      6.3501497    
  15080000   302.6561      -216.77442      1301.2126      3790.9192      13.98862     
  15085000   304.1616      -206.41776      1272.7244      3786.2504      6.1975831    
  15090000   302.23559     -217.06651      1322.8747      3808.5288      15.364307    
  15095000   306.24718     -211.92273      1315.2573      3841.9285      9.0775099    
  15100000   291.42612     -222.91167      1287.6117      3670.7578      6.8904041    
  15105000   302.18242     -208.34266      1262.2688      3756.1713      5.4229581    
  15110000   310.17608     -194.30239      1291.2836      3870.7092      6.0622435    
  15115000   296.57794     -216.78171      1283.2355      3718.5813      1.4090552    
  15120000   302.92841     -203.24324      1287.85        3793.5229      21.805232    
  15125000   296.90015     -205.30627      1261.8836      3711.5862      0.85562864   
  15130000   300.21949     -207.98138      1336.3616      3813.072       8.287492     
  15135000   305.46978     -197.10479      1270.1746      3804.712      -1.46601      
  15140000   305.26003     -210.81072      1288.2541      3807.2099      6.2255981    
  15145000   299.34054     -217.39998      1282.3164      3741.7483      6.5713188    
  15150000   299.38786     -223.20557      1262.9587      3717.0082      4.8064549    
  15155000   299.556       -215.02627      1271.2832      3735.0155      15.30226     
  15160000   302.26151     -204.60356      1264.3679      3762.7168      8.0157297    
  15165000   296.49173     -236.53701      1284.7211      3699.5407      6.9349225    
  15170000   302.04888     -210.4114       1284.0143      3774.6539      9.6981345    
  15175000   302.11594     -201.72684      1252.9238      3752.8477      8.6978989    
  15180000   301.4018      -202.60102      1281.3942      3774.0578      6.6251555    
  15185000   299.9716      -210.05355      1279.4765      3751.898       9.3167484    
  15190000   296.98939     -209.95771      1294.2129      3740.0621      6.5537348    
  15195000   299.3668      -192.50313      1285.8459      3770.4094     -1.0687905    
  15200000   299.63871     -214.766        1257.212       3721.9443      6.4402919    
  15205000   300.11938     -189.77464      1302.1163      3796.1382      13.633625    
  15210000   293.622       -197.94474      1252.1632      3679.9127      10.246382    
  15215000   298.18508     -208.47711      1262.9794      3721.0015      9.4868562    
  15220000   296.1674      -199.40301      1217.7606      3666.8139      0.89461094   
  15225000   297.70623     -232.82944      1219.7796      3649.1673      10.792303    
  15230000   305.26813     -212.85383      1276.9425      3793.9276      8.6813327    
  15235000   301.26285     -205.01771      1306.0151      3795.0194      5.9332684    
  15240000   298.52071     -209.72827      1298.803       3758.5753      8.2578584    
  15245000   305.95937     -206.71167      1294.5053      3823.814       12.488962    
  15250000   296.94289     -229.65031      1258.5417      3684.2824      13.864447    
  15255000   299.14491     -197.74314      1227.0467      3704.386       10.851127    
  15260000   299.17291     -214.19148      1277.4395      3738.5808      7.2000625    
  15265000   307.1222      -228.26437      1275.2925      3793.4469      12.287647    
  15270000   297.17645     -227.33901      1322.5792      3752.7198      4.3219069    
  15275000   300.15815     -211.41923      1294.3725      3767.0965      8.9722067    
  15280000   294.64731     -203.33585      1281.6377      3713.1649      13.75817     
  15285000   298.2793      -199.08107      1280.4884      3748.7491      4.7694905    
  15290000   302.65742     -211.17049      1315.2747      3810.5971      6.2330006    
  15295000   298.68506     -203.01009      1258.9121      3726.8724      8.1501237    
  15300000   305.57259     -219.84059      1288.1273      3800.8483      8.5366806    
  15305000   302.85371     -230.03061      1248.4919      3726.7094      7.7221432    
  15310000   303.59089     -214.09159      1262.7174      3763.4661      7.5515585    
  15315000   303.94211     -208.62087      1257.4832      3766.8434      16.553976    
  15320000   298.373       -189.53386      1266.7197      3745.3656      13.917886    
  15325000   301.67806     -213.09709      1287.4031      3772.041       6.9279615    
  15330000   307.08546     -214.54701      1326.0654      3857.6087      11.529812    
  15335000   302.53735     -226.64041      1282.0549      3760.8337      6.559686     
  15340000   293.68015     -224.3314       1283.724       3685.6069      10.058202    
  15345000   308.6729      -201.87038      1257.631       3816.0465      3.2728101    
  15350000   298.97479     -221.84709      1307.5382      3759.2522      10.522947    
  15355000   308.19723     -204.79364      1253.7773      3805.0158      12.973138    
  15360000   299.18862     -222.62612      1316.1924      3769.0396     -1.7993832    
  15365000   299.94884     -209.22797      1269.6188      3742.6624      9.8711015    
  15370000   307.49436     -213.50755      1291.043       3827.2823      5.5493689    
  15375000   301.282       -213.31905      1283.9335      3764.8076      14.206548    
  15380000   296.69709     -211.47755      1273.0366      3714.752       10.876863    
  15385000   303.81752     -206.56632      1291.1949      3801.4956      10.439213    
  15390000   306.86146     -198.79732      1237.8971      3783.187       8.8845817    
  15395000   299.13118     -211.23381      1270.274       3734           1.4212331    
  15400000   299.71666     -220.36627      1269.409       3729.238       8.4202079    
  15405000   300.54171     -205.7442       1324.2987      3806.1278      13.018922    
  15410000   298.59631     -203.59856      1291.6948      3758.2729      11.823518    
  15415000   298.3973      -217.9658       1277.8894      3728.3206      9.5219374    
  15420000   292.06918     -223.16653      1289.0211      3677.6629      10.382823    
  15425000   294.6238      -217.7629       1270.1393      3687.0292      11.362658    
  15430000   301.20687     -213.35364      1276.2203      3756.388       10.97577     
  15435000   305.75928     -219.34832      1316.5394      3831.422       10.620952    
  15440000   302.5567      -204.35584      1252.9196      3754.1559      8.4140971    
  15445000   302.79662     -200.32         1302.387       3809.8046      12.251052    
  15450000   300.59572     -203.85956      1250.9078      3735.1044      8.9228049    
  15455000   302.41392     -203.73546      1340.3667      3840.9466      9.1222129    
  15460000   301.67929     -201.13772      1305.8908      3802.499       5.0124354    
  15465000   298.4725      -187.4204       1267.2527      3748.9018      6.0581654    
  15470000   300.11054     -221.137        1285.5966      3748.1771      11.805924    
  15475000   297.39639     -214.19973      1274.3208      3719.5675      10.013677    
  15480000   299.06128     -200.62178      1270.1746      3743.8874      4.6438436    
  15485000   303.12295     -205.00404      1318.0985      3823.7503      10.17359     
  15490000   297.55462     -220.12474      1273.4393      3714.176       5.0287436    
  15495000   298.564       -212.6755       1275.462       3732.6742      11.333274    
  15500000   306.85356     -220.17989      1250.2897      3774.1263      5.0186129    
  15505000   285.11989     -202.66902      1303.1611      3650.1567      1.5729428    
  15510000   312.79444     -197.25818      1284.1576      3884.0418      6.8763656    
  15515000   294.23761     -225.47351      1246.5928      3652.3185      7.7614003    
  15520000   301.70499     -201.86677      1311.6618      3807.7708      6.0316997    
  15525000   306.42255     -218.58869      1290.8515      3812.4251      6.4956457    
  15530000   292.85799     -206.92733      1279.2403      3691.1751      6.0851451    
  15535000   293.59808     -201.06772      1296.9808      3721.3933      3.8860474    
  15540000   306.5822      -212.8654       1258.7847      3787.5092      14.03965     
  15545000   299.13108     -208.33707      1321.4688      3788.0905      14.334618    
  15550000   292.17155     -210.69997      1233.1716      3635.1953      8.1589415    
  15555000   306.23809     -208.6258       1296.2868      3826.1737      19.40687     
  15560000   304.04595     -210.1352       1268.7352      3777.5097      2.668747     
  15565000   302.28639     -216.90187      1320.1284      3806.4015      5.9456554    
  15570000   294.4172      -215.40957      1336.7952      3754.191       9.5443036    
  15575000   298.04405     -224.64143      1301.3614      3741.958       11.433579    
  15580000   300.32162     -215.65524      1296.3798      3766.3296      7.9502112    
  15585000   291.89558     -204.06179      1315.0509      3721.2449      0.31074193   
  15590000   303.72226     -204.35766      1274.4692      3786.1266      10.85141     
  15595000   303.34846     -194.36736      1283.3869      3801.692       14.654588    
  15600000   299.24986     -206.64927      1295.7196      3765.0914      7.8139019    
  15605000   303.04585     -219.83015      1294.7554      3784.8917      11.823621    
  15610000   294.58395     -209.71761      1318.5978      3743.1766      11.425151    
  15615000   295.97424     -195.16305      1276.5785      3728.1445      4.9964266    
  15620000   305.8768      -185.47919      1295.5442      3845.3469      5.0974364    
  15625000   298.24798     -214.65847      1264.0704      3716.4737      6.478541     
  15630000   303.25331     -200.96096      1252.9604      3763.821       7.6899879    
  15635000   301.75629     -201.20618      1283.0624      3780.2907      4.7041663    
  15640000   300.28151     -200.05177      1258.7043      3743.899       15.629554    
  15645000   303.75999     -214.0053       1258.2454      3760.5926      14.920281    
  15650000   300.85122     -214.79797      1279.2509      3754.7939      3.9837399    
  15655000   305.55206     -195.64144      1301.1618      3837.8984      7.1417687    
  15660000   297.79312     -201.21222      1263.8102      3725.5922      0.33819004   
  15665000   298.65538     -199.05811      1313.9665      3785.6133      7.2183667    
  15670000   301.57504     -198.02439      1258.6098      3757.3991      0.91675022   
  15675000   293.28768     -212.12302      1287.7323      3698.3138      6.5140129    
  15680000   299.55399     -208.90677      1279.6203      3749.4541      8.7101432    
  15685000   300.40968     -195.49826      1267.8584      3758.7528      7.0504181    
  15690000   300.68114     -197.73937      1254.5666      3745.6474      10.333602    
  15695000   298.57505     -198.68684      1287.265       3758.5646      6.0332382    
  15700000   302.67375     -212.21105      1288.5093      3782.9371      5.1449734    
  15705000   304.72527     -212.32041      1297.3718      3810.0358      9.2243476    
  15710000   293.73561     -210.81447      1267.8497      3683.7455      7.6488516    
  15715000   288.15152     -210.86291      1331.1177      3697.0296      6.7388951    
  15720000   298.66555     -210.37077      1283.0094      3743.4345      7.3209838    
  15725000   297.88846     -189.55368      1306.6673      3780.9604      4.8696981    
  15730000   298.45606     -176.57626      1287.7983      3780.1445      10.897651    
  15735000   305.03962     -217.39882      1279.7792      3790.1758      2.4440551    
  15740000   294.94201     -232.51974      1313.1266      3718.1052      2.8709217    
  15745000   300.05503     -194.50651      1261.9499      3750.6645      8.3550245    
  15750000   299.13465     -209.54279      1306.2301      3771.678       0.61957117   
  15755000   294.1357      -205.46011      1247.9162      3672.7441      10.201503    
  15760000   293.73653     -215.93652      1274.6301      3685.412       4.4472634    
  15765000   295.12232     -208.66801      1270.4514      3700.8942      8.7330611    
  15770000   300.73315     -215.77271      1267.9393      3741.4517      11.060948    
  15775000   302.09334     -202.3688       1288.821       3787.9007      4.9389477    
  15780000   306.50506     -214.8527       1297.7214      3823.7688      7.2514945    
  15785000   302.20568     -222.35777      1280.5094      3760.6049      13.105839    
  15790000   300.24724     -214.83236      1308.89        3778.9976      12.008814    
  15795000   300.39415     -218.42086      1269.0171      3736.8499      7.2568889    
  15800000   296.04933     -204.86492      1373.5006      3816.0361      6.0238027    
  15805000   291.34942     -212.71546      1275.0041      3667.6605      3.7246709    
  15810000   304.95793     -202.44065      1295.6775      3820.3019      16.603002    
  15815000   304.71422     -216.06633      1283.0225      3791.8418      15.252318    
  15820000   303.54281     -224.99513      1266.8615      3756.2767      8.9774474    
  15825000   296.52082     -225.19192      1300.5961      3727.0209      4.5106588    
  15830000   294.49485     -228.2618       1264.9019      3670.1397      15.700545    
  15835000   300.69186     -211.29993      1237.0027      3714.6187      9.2786448    
  15840000   305.54646     -210.60504      1319.1115      3840.8344      0.36394838   
  15845000   296.89489     -198.66272      1323.1283      3779.4274      0.8200677    
  15850000   299.44389     -204.07967      1309.9858      3783.6623      11.467471    
  15855000   306.49404     -219.47914      1291.3587      3812.6811      8.372994     
  15860000   302.36651     -220.67275      1308.7458      3791.9644      8.675399     
  15865000   294.98787     -223.97625      1265.7571      3679.6893      1.83555      
  15870000   297.85494     -217.32581      1271.4278      3717.649       11.387515    
  15875000   297.56735     -208.09665      1222.3797      3675.2582      3.6600577    
  15880000   299.33859     -226.06344      1253.9617      3704.7128      11.957941    
  15885000   293.45504     -210.16013      1268.7318      3682.7728      3.0363493    
  15890000   301.38628     -194.13077      1279.4371      3780.432       3.2042826    
  15895000   301.75769     -192.55036      1260.7315      3766.6282      2.7705868    
  15900000   291.53819     -222.05641      1295.6111      3680.6146      11.97184     
  15905000   299.73061     -225.81888      1257.815       3712.3162      11.149059    
  15910000   306.4925      -198.86763      1253.6463      3795.5664      9.7835559    
  15915000   299.58469     -188.13233      1235.4941      3726.3769      10.38266     
  15920000   299.15228     -187.08586      1257.5094      3745.5719      9.1839335    
  15925000   291.21194     -188.07109      1271.5033      3687.5747      2.5859051    
  15930000   301.15957     -206.34787      1300.1039      3786.8545      8.6650147    
  15935000   303.37441     -205.56966      1237.8561      3745.1909      6.6131158    
  15940000   302.10147     -202.86045      1279.031       3777.6918      12.667936    
  15945000   302.57468     -195.65024      1256.4347      3766.5373     -2.4304822    
  15950000   308.72559     -207.99302      1241.5769      3794.3409      7.5777973    
  15955000   299.66545     -189.43838      1342.6973      3832.9963      9.1573263    
  15960000   300.83164     -190.1179       1272.8272      3772.8752      5.4798867    
  15965000   297.67428     -217.14073      1311.9888      3756.7795      6.0515718    
  15970000   300.35069     -210.43319      1299.3966      3774.8285      11.359286    
  15975000   302.62273     -205.53536      1251.3954      3752.0427      12.95546     
  15980000   301.2511      -231.15973      1303.1762      3765.9334      3.8093085    
  15985000   312.09663     -196.39059      1293.447       3887.9586      10.143074    
  15990000   310.67432     -201.32725      1324.1633      3901.0194      8.576538     
  15995000   306.02963     -202.79957      1302.4006      3836.2497     -2.5136334    
  16000000   299.88365     -193.04319      1250.72        3739.3653      16.680751    
  16005000   295.95003     -176.66601      1251.9797      3721.8262      5.6285499    
  16010000   291.1481      -226.90256      1189.523       3566.192       8.1445775    
  16015000   303.86782     -216.49222      1311.0591      3811.8836      8.4105222    
  16020000   303.31035     -199.00046      1253.4813      3766.8125      3.668303     
  16025000   292.5025      -196.35493      1259.5428      3678.8711      8.6041385    
  16030000   296.34055     -200.24069      1271.7315      3721.4955      6.7043606    
  16035000   288.79887     -205.57794      1272.6101      3649.5959      6.6944232    
  16040000   298.98138     -205.54199      1268.1432      3736.2213      5.0052473    
  16045000   298.66622     -190.25361      1327.192       3807.7402      11.466742    
  16050000   306.23046     -214.64401      1266.8665      3790.667       7.6715264    
  16055000   300.89185     -199.34022      1312.4012      3803.7654      2.5437955    
  16060000   306.37275     -203.08857      1317.7502      3854.3785      14.102703    
  16065000   299.23439     -224.36098      1265.3355      3716.8572      10.73288     
  16070000   295.02082     -213.00218      1271.6735      3696.8744      9.5724594    
  16075000   299.2567      -210.7047       1317.5052      3782.8826      2.7150736    
  16080000   309.67363     -208.62193      1302.5128      3863.1256      2.5242413    
  16085000   303.13687     -204.89719      1245.1247      3751.0078      4.915572     
  16090000   297.34451     -208.61835      1300.3753      3750.7395      7.938608     
  16095000   297.12479     -210.27274      1323.8528      3770.5978      2.951821     
  16100000   301.70621     -197.75999      1292.2987      3792.5254      8.2378074    
  16105000   299.00095     -206.06163      1293.4651      3761.1985      1.8421727    
  16110000   300.76549     -210.19628      1326.9188      3806.2969      7.0899916    
  16115000   302.2806      -202.8086       1294.6538      3794.9684      7.6047427    
  16120000   301.27647     -218.03745      1275.6048      3751.7112      6.4813299    
  16125000   296.46551     -223.85896      1286.7426      3714.0058      11.937692    
  16130000   305.31844     -197.87805      1282.172       3814.5827      9.8843455    
  16135000   297.49351     -204.37171      1285.6571      3741.6003      9.9395105    
  16140000   296.99475     -218.44102      1273.3585      3710.7723      7.1679716    
  16145000   305.99484     -205.54336      1245.0278      3775.822       6.1687405    
  16150000   304.60947     -214.59218      1298.0749      3807.4316      6.9173253    
  16155000   305.61446     -217.89061      1259.2125      3774.2578      8.115845     
  16160000   304.48534     -204.43568      1254.6502      3773.0534      7.727721     
  16165000   298.43227     -207.80865      1277.1746      3738.0757      11.889675    
  16170000   304.74597     -199.51686      1268.9274      3794.5801      7.2873089    
  16175000   301.87995     -204.32166      1272.2027      3767.4215      14.885549    
  16180000   290.15612     -230.21346      1335.0722      3699.5596      3.3490327    
  16185000   294.30082     -219.13768      1305.7395      3718.3663      5.8285727    
  16190000   297.90144     -215.02302      1247.5787      3696.5185      6.9864074    
  16195000   301.2983      -229.77006      1279.3083      3743.8772      9.8109507    
  16200000   298.39393     -206.31954      1274.2741      3736.3214      7.5254809    
  16205000   297.49956     -196.80066      1293.3921      3756.9605      13.306984    
  16210000   301.50752     -210.06899      1310.5828      3796.7238      7.8287214    
  16215000   305.02896     -213.30485      1270.121       3784.5163      6.1642754    
  16220000   295.88076     -205.09802      1257.4532      3698.2481      8.8518164    
  16225000   303.09251     -190.78803      1246.8578      3766.4534      12.913883    
  16230000   299.73073     -193.65025      1294.7281      3781.3989      9.2305994    
  16235000   297.48953     -196.07178      1252.3676      3716.5752      8.8293196    
  16240000   304.38239     -212.31548      1333.2257      3842.8286      9.8598787    
  16245000   298.07644     -194.56262      1325.3211      3796.2862      12.145027    
  16250000   301.17755     -191.49827      1239.6347      3741.3956      10.030889    
  16255000   298.96248     -190.13424      1278.7169      3762.0338      9.197453     
  16260000   300.97072     -210.7966       1292.6774      3773.2904      2.3481503    
  16265000   297.50619     -221.45661      1253.6127      3692.5844      10.460097    
  16270000   298.97871     -218.06035      1297.3621      3752.898       4.4554015    
  16275000   302.5109      -210.42531      1313.0837      3807.841       6.2861337    
  16280000   302.06255     -218.67639      1267.2001      3749.6969      0.59024341   
  16285000   304.17471     -213.70214      1245.3434      3751.7024      8.0616547    
  16290000   296.92411     -203.96775      1275.407       3726.6623      6.7178643    
  16295000   307.12717     -217.68738      1270.6715      3799.4474      0.67448097   
  16300000   292.61499     -223.54296      1329.9956      3723.1418      10.486795    
  16305000   294.90299     -202.38163      1281.0278      3715.7955      4.3524148    
  16310000   295.71407     -211.37548      1269.7754      3702.8024      3.8026701    
  16315000   291.46486     -229.63096      1287.6003      3664.3734      9.3576925    
  16320000   301.78809     -186.52347      1197.7892      3709.9847      14.703515    
  16325000   298.23908     -206.48964      1244.018       3704.5105      5.6752574    
  16330000   293.24697     -213.05518      1265.1759      3674.4612      6.6641203    
  16335000   297.97574     -212.11904      1305.3298      3757.838       5.3839711    
  16340000   300.32585     -192.36551      1250.0589      3743.3363      13.066241    
  16345000   301.81797     -201.41649      1248.7009      3746.2706      2.1876067    
  16350000   298.33896     -216.42035      1270.4345      3721.8894      10.053466    
  16355000   293.42481     -215.21666      1280.5814      3689.2956      2.4005998    
  16360000   305.99886     -211.82834      1257.5757      3782.1208      6.6258647    
  16365000   293.18335     -216.31757      1271.8691      3677.3231      5.4957695    
  16370000   294.79511     -204.4773       1289.6312      3721.3386      10.972706    
  16375000   304.16738     -213.92862      1315.6354      3821.7023      9.0528242    
  16380000   302.02825     -194.15266      1247.7793      3754.4932      3.4089146    
  16385000   297.80278     -189.92669      1298.9624      3772.1163      4.7043301    
  16390000   304.07305     -195.06235      1232.3944      3756.4841      18.756068    
  16395000   295.37329     -204.27781      1262.4353      3699.5125      5.1516176    
  16400000   292.80348     -229.61423      1284.3593      3673.1198      5.5482438    
  16405000   295.85397     -205.03981      1278.0246      3718.6382      2.1542638    
  16410000   293.68043     -221.71368      1264.3337      3668.8367      6.4528949    
  16415000   297.58333     -222.73123      1293.3787      3731.7656      8.6623598    
  16420000   301.73725     -214.58746      1250.2446      3733.9214      15.544606    
  16425000   297.52633     -210.05976      1254.6814      3705.23        6.5463779    
  16430000   303.27926     -219.47565      1269.0477      3761.6256      5.013784     
  16435000   292.795       -196.15896      1217.8522      3639.9921      9.4244589    
  16440000   301.43263     -217.01639      1250.9817      3729.5056      12.408582    
  16445000   303.77688     -203.59703      1236.816       3749.7225      9.0057871    
  16450000   296.89649     -198.6684       1281.0856      3737.3933      8.0429373    
  16455000   300.47277     -226.1869       1291.729       3752.4988      1.8088241    
  16460000   305.29157     -201.30267      1267.5245      3796.2704      11.751386    
  16465000   304.14587     -199.7516       1319.2968      3839.3484      8.4158318    
  16470000   303.23271     -200.59514      1293.0811      3804.1233      13.918686    
  16475000   308.23635     -195.07965      1308.8141      3870.1164      9.0761679    
  16480000   291.73274     -218.9521       1271.8379      3661.6854      9.5001062    
  16485000   303.12716     -203.77583      1328.0604      3834.978       5.3618966    
  16490000   302.15758     -212.48769      1256.6315      3746.1668      9.018806     
  16495000   300.46709     -224.9248       1298.3249      3760.3061      10.500021    
  16500000   302.90663     -207.37611      1313.7979      3815.1431      5.6745078    
  16505000   294.76309     -218.20727      1256.8366      3674.5277      14.032788    
  16510000   301.66741     -218.70621      1286.2694      3765.203       13.405917    
  16515000   299.33317     -219.72531      1292.562       3749.6027      2.4358442    
  16520000   300.91539     -216.70687      1270.1373      3744.3453      12.225131    
  16525000   304.33095     -210.35389      1315.6271      3826.7315      9.6513788    
  16530000   293.40144     -199.75151      1298.0938      3722.0643      6.2900728    
  16535000   297.68247     -199.72274      1291.582       3753.864       2.8065231    
  16540000   300.1544      -202.03056      1225.5953      3707.6745      9.9545736    
  16545000   292.94459     -201.16379      1306.8572      3725.33        12.5952      
  16550000   296.70147     -217.69463      1278.9202      3714.4578      1.510006     
  16555000   302.94202     -211.27633      1313.0281      3810.7897      5.0382999    
  16560000   300.70239     -200.28396      1235.4517      3724.1779      9.5889565    
  16565000   297.58239     -190.72479      1297.1975      3767.5825      12.488978    
  16570000   300.60769     -213.33579      1263.9604      3738.7879      5.7131366    
  16575000   304.54063     -220.67582      1250.6751      3753.3326      10.163242    
  16580000   311.06056     -205.50788      1312.817       3888.9465      10.965038    
  16585000   294.56837     -197.26816      1296.9405      3733.8293      4.1099493    
  16590000   291.26569     -216.16661      1288.1216      3676.5782      5.0333509    
  16595000   305.51819     -225.29478      1309.0404      3815.8207      3.7081208    
  16600000   303.3523      -205.90708      1267.1161      3773.9158      14.947738    
  16605000   300.40353     -215.5927       1337.5874      3808.3323      5.1170589    
  16610000   296.40387     -206.08331      1289.456       3733.9436      3.6330882    
  16615000   307.29527     -217.09871      1334.2351      3865.1029      9.4249813    
  16620000   299.06127     -197.79726      1300.6344      3777.1716      6.5427887    
  16625000   302.06757     -204.42412      1346.9681      3843.7621      4.5492667    
  16630000   304.22789     -219.4682       1257.7156      3758.7841      9.2850483    
  16635000   290.87428     -208.86983      1287.6564      3679.9095      16.693949    
  16640000   296.67302     -223.981        1235.0168      3664.0136      3.2473341    
  16645000   301.65949     -216.38057      1256.0483      3737.2366      1.6201021    
  16650000   302.14968     -214.93419      1276.6612      3763.6794      11.061045    
  16655000   296.27738     -208.60917      1311.1302      3751.9609      4.0387284    
  16660000   296.86289     -209.23168      1304.412       3749.856       6.7221616    
  16665000   297.06913     -209.56636      1311.6462      3758.5998      0.020365322  
  16670000   298.00664     -205.04683      1306.6404      3766.4971      2.5455257    
  16675000   300.02957     -195.98427      1240.0547      3727.0638      3.6479692    
  16680000   296.41202     -207.49595      1290.7201      3733.868       4.645017     
  16685000   305.01044     -213.43614      1341.7894      3855.8878      2.8251186    
  16690000   296.37806     -207.63635      1285.7706      3728.4744      2.8022975    
  16695000   298.40948     -221.60523      1250.5266      3697.4273      2.5090484    
  16700000   293.11241     -209.05484      1259.8415      3671.9239      4.1388278    
  16705000   299.55192     -217.95506      1308.0867      3768.8538      4.858259     
  16710000   293.49235     -201.39124      1313.8992      3737.0428     -1.3010604    
  16715000   306.92883     -226.05342      1261.0314      3779.6677      8.1524545    
  16720000   301.24421     -220.39282      1314.4352      3787.8977      8.8308634    
  16725000   293.31299     -216.81349      1344.2387      3750.3561      5.1840293    
  16730000   294.7493      -220.63946      1298.3795      3713.5151     -0.30042247   
  16735000   296.25316     -186.02853      1323.2481      3786.4428      0.69261033   
  16740000   298.89314     -215.485        1295.8477      3753.1937      7.8435799    
  16745000   297.74325     -216.02606      1239.7138      3686.236       9.187787     
  16750000   296.85675     -214.45607      1291.2292      3731.3939      8.2806541    
  16755000   300.25533     -206.51679      1254.2688      3732.7644      3.1670311    
  16760000   299.38787     -212.58798      1301.5604      3766.2275      2.2920324    
  16765000   300.41929     -216.08611      1277.0783      3747.4708      9.6321649    
  16770000   296.25243     -191.64188      1286.6092      3744.1839      10.590338    
  16775000   304.11386     -212.30039      1321.9199      3829.1364      0.99288646   
  16780000   301.33072     -208.13793      1303.6576      3790.1486      8.632473     
  16785000   299.63008     -216.70746      1230.4843      3693.1979      7.4507623    
  16790000   301.65343     -195.15557      1277.0835      3779.4426      8.0069446    
  16795000   303.89925     -221.01285      1247.0524      3743.6373      8.4554497    
  16800000   298.73824     -207.68319      1294.253       3758.0156      7.2175639    
  16805000   299.51918     -210.57488      1298.6935      3766.548       11.235611    
  16810000   296.60522     -197.67027      1265.3248      3720.0259      6.2558452    
  16815000   304.50554     -201.98815      1297.443       3818.4744      6.3943093    
  16820000   304.1835      -219.55586      1311.0478      3811.6316      6.7042698    
  16825000   298.33799     -204.01783      1324.5111      3788.36        9.3684119    
  16830000   301.3485      -208.80236      1306.7351      3792.7207      3.8973864    
  16835000   302.48624     -208.40591      1278.6927      3775.2488      9.680577     
  16840000   294.92276     -202.54294      1289.2849      3724.0681      5.127547     
  16845000   296.88398     -192.41146      1276.7278      3739.1806      7.3652994    
  16850000   299.29699     -197.15405      1361.0915      3840.3798      1.848903     
  16855000   292.97563     -213.26656      1256.6817      3663.3293      7.2987878    
  16860000   296.47624     -193.19554      1268.9797      3727.0022      5.0897067    
  16865000   301.23292     -206.57832      1277.6167      3764.7927      6.561188     
  16870000   301.52337     -204.25887      1307.1124      3799.2052      10.494839    
  16875000   302.93907     -208.97876      1250.7465      3750.7792      13.699603    
  16880000   298.77166     -217.193        1270.0987      3724.6504      4.1091363    
  16885000   298.48442     -209.12877      1277.9228      3737.9701     -0.78740447   
  16890000   302.23195     -188.53663      1285.5904      3799.7419      14.702096    
  16895000   292.61213     -196.10707      1338.8711      3759.4276      4.0661194    
  16900000   298.63544     -195.37196      1300.2476      3775.4022      2.3056154    
  16905000   310.31807     -196.84381      1247.2055      3825.3593      16.121657    
  16910000   301.11972     -220.75248      1311.3956      3783.3852      5.3969495    
  16915000   302.88711     -231.3014       1272.6756      3749.921       8.7687847    
  16920000   294.52408     -204.22736      1272.8407      3702.3744      4.1047382    
  16925000   307.72538     -194.79423      1275.5684      3832.5869      10.48384     
  16930000   298.89329     -210.39307      1272.7293      3735.1686      14.500525    
  16935000   304.64847     -214.93617      1214.3074      3723.6689      6.4871463    
  16940000   304.64426     -194.43458      1324.6717      3854.4972      10.217558    
  16945000   300.40142     -203.07048      1319.5322      3802.7804     -3.0607211    
  16950000   295.4534      -209.76049      1267.0673      3699.3782      6.8217431    
  16955000   298.12169     -206.2061       1257.9898      3717.716       6.6515488    
  16960000   300.9525      -206.97867      1261.8117      3746.0797      0.25174143   
  16965000   300.45327     -223.49793      1293.1904      3756.4748      10.199926    
  16970000   298.92874     -211.80243      1295.2551      3756.602       8.670597     
  16975000   303.95371     -210.92555      1248.4903      3755.6495      7.9061278    
  16980000   300.91755     -213.27933      1264.0145      3741.6694      10.205049    
  16985000   296.62691     -195.11601      1274.1349      3731.5843      8.7128491    
  16990000   303.69929     -201.21415      1306.0821      3820.6776      7.9769956    
  16995000   300.1745      -222.50191      1249.2703      3711.0579      5.9329688    
  17000000   294.46866     -212.36477      1237.7646      3658.6652      5.722149     
  17005000   296.10232     -219.001        1289.7749      3718.6482      6.6116952    
  17010000   295.23589     -207.80707      1265.2366      3697.5559      9.6538286    
  17015000   298.08249     -198.1385       1272.422       3739.8653     -0.83688891   
  17020000   299.54825     -229.03701      1253.4208      3703.073       7.5609306    
  17025000   296.98537     -212.54556      1260.8041      3704.0294      5.6200659    
  17030000   298.26479     -221.19491      1276.0634      3722.0806      4.415412     
  17035000   300.31899     -223.02715      1286.9008      3749.4553      9.5967877    
  17040000   306.05458     -208.31658      1251.4899      3780.0451      13.627496    
  17045000   300.98409     -204.36894      1260.3896      3747.5499      12.604027    
  17050000   299.79248     -214.52639      1292.4662      3758.8131      15.7828      
  17055000   297.624       -191.02196      1240.9901      3711.45        8.9069634    
  17060000   298.28731     -220.27293      1326.4572      3773.5977     -0.7027228    
  17065000   294.1169      -203.76498      1306.9816      3733.3364      5.9997821    
  17070000   299.62981     -224.37757      1324.9358      3779.9768     -0.22860234   
  17075000   302.2677      -206.32404      1279.4725      3776.1562      10.264637    
  17080000   295.42979     -209.51801      1247.6199      3679.9621      5.812143     
  17085000   297.74642     -208.86495      1230.8746      3684.5862      11.693802    
  17090000   307.09678     -215.04793      1273.475       3804.6186      10.028131    
  17095000   293.96087     -228.92964      1297.1871      3696.982       1.8160949    
  17100000   293.81811     -201.18558      1251.8963      3678.1587      4.1695189    
  17105000   299.33639     -208.83779      1264.2909      3732.2478      5.9686763    
  17110000   304.51804     -219.84666      1235.9001      3739.1848      20.136443    
  17115000   301.88667     -214.64286      1241.0975      3726.0551      10.975162    
  17120000   300.60413     -218.45633      1289.4283      3759.1034      5.1359589    
  17125000   293.87691     -204.02861      1308.2145      3732.1596     -2.3993575    
  17130000   306.30888     -199.60936      1319.5606      3859.097       6.0399981    
  17135000   301.31019     -208.95202      1283.2397      3768.733       11.188439    
  17140000   296.62152     -203.7126       1358.7986      3807.6032      11.549333    
  17145000   301.30012     -213.45278      1314.0548      3794.9573      1.221462     
  17150000   299.86327     -216.0818       1287.6591      3753.0836      11.389088    
  17155000   298.64636     -217.52931      1273.005       3726.0999      9.0686592    
  17160000   302.72144     -206.92215      1255.9786      3756.1218      10.92973     
  17165000   299.38356     -206.69389      1255.8149      3726.3376      5.6927641    
  17170000   293.60655     -219.16391      1277.0894      3683.4815      3.868208     
  17175000   302.81264     -186.65099      1260.7297      3781.9596      11.89873     
  17180000   299.57411     -193.35855      1355.6769      3841.2388      5.7882888    
  17185000   299.76501     -203.5964       1285.0977      3762.129       10.53613     
  17190000   304.14127     -189.02574      1273.018       3803.7543      5.8185212    
  17195000   298.30942     -189.29992      1291.3227      3769.634       4.9585134    
  17200000   305.44032     -211.517        1314.8628      3834.7245      4.1869579    
  17205000   303.2423      -208.87994      1259.8324      3762.6756      6.8504569    
  17210000   295.40389     -215.54674      1243.7511      3669.833       6.2758823    
  17215000   303.37093     -214.42736      1263.1016      3761.5476      5.9739088    
  17220000   305.81694     -212.89972      1243.854       3765.7009      9.7615579    
  17225000   300.23467     -195.97497      1327.0344      3815.887       0.55622898   
  17230000   307.61404     -193.2897       1279.0883      3836.6157      5.7619458    
  17235000   296.54729     -209.73845      1281.1444      3723.2594      11.331063    
  17240000   303.05552     -199.23123      1259.7153      3770.5369      11.492547    
  17245000   300.8129      -195.85376      1284.756       3778.9006      10.709308    
  17250000   293.16515     -215.58857      1274.9175      3680.9379      12.376653    
  17255000   298.7582      -215.98053      1299.2644      3754.9082      5.1335143    
  17260000   309.53013     -198.05118      1269.109       3839.0094      12.708567    
  17265000   305.87677     -207.56847      1291.945       3819.6582      13.551702    
  17270000   294.79125     -206.90212      1315.0067      3744.2547      9.670251     
  17275000   294.42425     -192.6          1272.7047      3712.973       8.2833602    
  17280000   303.16834     -212.53771      1284.2835      3782.8075      7.3158177    
  17285000   300.00016     -219.68076      1236.7478      3699.7975      9.7764653    
  17290000   302.26879     -230.07439      1323.8147      3796.7579      6.4878535    
  17295000   306.2329      -194.29682      1258.9025      3803.0721      9.1631856    
  17300000   294.21175     -209.27617      1303.966       3725.6579      6.2289739    
  17305000   317.81244     -214.36713      1299.9975      3927.6459      8.6060082    
  17310000   297.90952     -191.57375      1282.5909      3755.0523      11.349464    
  17315000   293.54502     -212.12577      1313.058       3725.938       0.73014628   
  17320000   305.26082     -210.22         1241.2123      3760.7659      15.510553    
  17325000   299.67872     -212.7392       1244.0713      3711.1881      9.2398854    
  17330000   304.53844     -206.43826      1280.8106      3797.686       4.4503841    
  17335000   293.32402     -200.6796       1354.2525      3776.6025      9.4424241    
  17340000   301.062       -191.46265      1287.3474      3788.1107     -0.23616164   
  17345000   296.2653      -214.26875      1291.0403      3726.1033      5.1410567    
  17350000   297.0873      -200.58835      1364.0684      3820.1625      7.9996199    
  17355000   296.77313     -200.55626      1264.8757      3718.1924      14.84728     
  17360000   296.84522     -211.79653      1274.4813      3717.2024      9.6224653    
  17365000   303.29292     -193.69758      1275.9007      3794.3789      13.538749    
  17370000   301.52304     -193.22918      1303.9949      3807.1145      5.651656     
  17375000   298.6027      -218.6281       1313.7186      3765.3242      6.6290853    
  17380000   300.06484     -199.95598      1325.2069      3808.5599      6.927771     
  17385000   307.13844     -209.18142      1280.7491      3818.1317      8.6044831    
  17390000   306.03267     -209.60439      1252.9493      3780.0207      8.5051413    
  17395000   305.04502     -193.72186      1277.9695      3812.0914      11.29645     
  17400000   307.61311     -206.19205      1308.3248      3852.9415      8.5054917    
  17405000   298.92885     -208.31901      1272.824       3737.6554      2.7508837    
  17410000   302.09905     -215.76075      1250.3056      3736.0446      7.1405593    
  17415000   295.95332     -196.32         1285.7976      3736.0195      8.84318      
  17420000   303.48136     -210.15256      1260.8325      3764.5408      7.787378     
  17425000   297.99523     -213.73583      1285.6318      3736.6975      8.3449305    
  17430000   293.27455     -213.32457      1287.8514      3697.114      -0.66666555   
  17435000   303.63628     -209.58832      1307.6027      3813.2606      7.9507285    
  17440000   293.4537      -212.69301      1315.1625      3726.6587      5.5690622    
  17445000   300.39308     -196.87136      1304.6339      3794.0066      6.4653973    
  17450000   300.86542     -210.85788      1312.0373      3791.6474      4.2939814    
  17455000   298.38095     -210.66408      1309.8688      3767.4555      7.8568833    
  17460000   307.19121     -217.57125      1308.2113      3837.676       16.60443     
  17465000   298.5557      -203.1764       1288.0581      3754.6952      12.693961    
  17470000   302.68801     -204.21629      1253.1067      3755.6568      6.4434733    
  17475000   300.95754     -216.2447       1314.2282      3789.2753      12.386672    
  17480000   303.87373     -211.3458       1281.3495      3787.3733      9.5908253    
  17485000   299.57862     -210.32275      1235.1644      3703.8026      11.195687    
  17490000   300.70923     -212.17325      1315.6579      3792.5559      20.151991    
  17495000   292.61685     -213.20022      1260.1915      3663.697       7.8013076    
  17500000   307.15724     -210.07787      1307.5257      3844.18        8.5627562    
  17505000   293.72165     -203.76999      1282.9608      3705.7762      1.2725182    
  17510000   301.58856     -206.69136      1287.1464      3777.3897      13.394981    
  17515000   304.94525     -215.96954      1328.0115      3838.9935      6.4825685    
  17520000   292.27433     -211.56117      1290.6955      3692.7772      12.625106    
  17525000   301.62528     -210.2403       1265.815       3752.8377      2.9538936    
  17530000   303.68882     -218.17667      1268.0344      3765.5738      14.413769    
  17535000   297.568       -197.86674      1247.6009      3710.7152      3.135494     
  17540000   292.75169     -199.03717      1333.8169      3752.6912      2.1444674    
  17545000   298.46083     -208.52006      1245.3573      3705.8024      17.871838    
  17550000   299.44987     -203.52573      1261.1881      3735.472       7.4390276    
  17555000   312.0801      -228.82292      1260.7422      3822.6738      4.9417055    
  17560000   301.61722     -202.46892      1279.7723      3774.4943      4.3010987    
  17565000   304.28833     -209.78589      1288.928       3800.2192      12.951754    
  17570000   294.48409     -211.60961      1277.0983      3698.892       2.0157574    
  17575000   292.88214     -180.14164      1276.1862      3715.1227      3.9039062    
  17580000   299.62097     -193.30528      1321.8365      3807.8708      9.1688861    
  17585000   300.5752      -212.48793      1294.9135      3770.2983      5.2730184    
  17590000   298.14564     -198.23894      1241.7679      3709.6755      12.129129    
  17595000   298.27181     -212.32741      1284.5242      3739.4716      7.4836408    
  17600000   303.33876     -207.74622      1286.2595      3791.099       12.544571    
  17605000   305.61275     -206.07511      1304.2068      3831.0523      9.3870778    
  17610000   301.02038     -199.98008      1315.4807      3807.3543      6.6029266    
  17615000   304.44553     -227.95926      1327.2816      3821.8053     -3.6757309    
  17620000   300.0768      -206.17118      1278.7663      3756.011       7.4284887    
  17625000   301.38339     -214.12284      1315.3347      3796.3118      11.666949    
  17630000   291.63455     -206.39845      1296.3989      3697.922       8.0524541    
  17635000   297.50509     -208.49655      1321.2145      3773.1365     -5.2218882    
  17640000   302.66001     -202.0503       1258.3185      3762.7842      8.3815005    
  17645000   298.53757     -193.69728      1225.62        3701.5741      12.078343    
  17650000   293.76676     -214.3978       1254.9761      3667.567       0.62664909   
  17655000   302.97378     -201.0275       1303.0693      3811.3637      14.108747    
  17660000   310.79398     -187.59154      1306.015       3897.6769      12.761482    
  17665000   295.71776     -209.34659      1264.084       3699.1728      12.491659    
  17670000   305.85881     -207.49595      1274.1606      3801.7857      4.6805881    
  17675000   306.32297     -190.2033       1309.419       3858.4875      6.5214625    
  17680000   297.11872     -197.73239      1275.1435      3734.3745      6.8656       
  17685000   294.73631     -210.39087      1299.5101      3724.7781      5.0352806    
  17690000   303.46182     -196.61676      1315.2707      3832.3401      6.4940867    
  17695000   303.049       -194.24347      1251.4219      3767.1729      13.610892    
  17700000   296.47511     -223.39757      1280.7333      3708.5436      8.7669842    
  17705000   314.20012     -198.79539      1300.3267      3911.2439      12.214637    
  17710000   296.87942     -205.14751      1259.3055      3708.9815      6.6420812    
  17715000   289.29774     -222.76533      1309.3327      3673.5922      8.6836074    
  17720000   306.22581     -195.46043      1248.7149      3791.6574      9.7738247    
  17725000   301.079       -205.07567      1294.9654      3782.2676      3.1002153    
  17730000   302.7602      -192.261        1250.3793      3765.5303      10.842394    
  17735000   303.98575     -214.10789      1247.9005      3752.1639      9.9039144    
  17740000   291.67646     -215.6524       1295.4794      3688.1234      12.582363    
  17745000   312.0923      -210.75532      1261.8292      3841.9375      9.4311737    
  17750000   298.58211     -204.48688      1254.4965      3720.0593      3.5963118    
  17755000   299.04022     -199.9541       1305.5117      3779.7039      1.7938796    
  17760000   298.59531     -215.11905      1300.5743      3755.6229      4.8654611    
  17765000   304.90043     -224.59478      1315.7362      3817.6922      5.2222365    
  17770000   304.42681     -212.09976      1286.8159      3797.0316      9.6061752    
  17775000   299.60283     -204.15537      1255.9772      3730.9992      6.038533     
  17780000   297.63196     -218.2175       1310.2711      3753.6066      2.7039439    
  17785000   300.92387     -205.244        1341.3674      3827.1141      4.5105432    
  17790000   297.89426     -212.98875      1332.9005      3783.8103      5.9375284    
  17795000   314.83195     -230.58218      1313.774       3898.5545      7.7995373    
  17800000   298.86475     -214.64724      1292.3147      3750.2446      7.0016676    
  17805000   298.37664     -205.6296       1284.5846      3747.1673      10.558839    
  17810000   303.81429     -215.23538      1264.0761      3765.6787      12.679146    
  17815000   305.76282     -210.79153      1308.6941      3832.1652      1.8769176    
  17820000   301.38591     -201.51356      1263.9639      3757.5728      2.766456     
  17825000   298.32422     -234.10938      1263.0482      3696.6823      6.7816934    
  17830000   308.93278     -208.83961      1321.882       3875.6521      2.3839185    
  17835000   297.1263      -210.51083      1292.3559      3738.8762      7.9543362    
  17840000   300.01616     -209.68735      1307.0186      3780.2048      5.6658243    
  17845000   301.47442     -194.80216      1235.0762      3736.1879      11.490748    
  17850000   301.93112     -192.26815      1294.1486      3801.8784      7.3767207    
  17855000   310.57925     -199.06565      1242.7026      3820.9703      9.7148827    
  17860000   298.40314     -212.35272      1287.7065      3743.803       8.0032649    
  17865000   302.70366     -209.78507      1296.5961      3793.7174      10.097615    
  17870000   294.24702     -213.38835      1317.8301      3735.7251      0.76949229   
  17875000   295.94578     -210.3624       1323.7819      3759.894       12.316894    
  17880000   299.85424     -201.56825      1319.6963      3799.5537     -2.8441633    
  17885000   299.43719     -221.11964      1292.5577      3749.1342      12.220721    
  17890000   307.67702     -205.99136      1254.6533      3800.0422      1.6258561    
  17895000   298.5993      -235.5856       1293.4446      3728.0624      11.806505    
  17900000   296.32661     -211.36914      1227.152       3665.6628      7.6212162    
  17905000   293.60902     -210.67225      1265.6793      3680.5852      10.965545    
  17910000   302.29378     -211.82318      1267.0854      3758.5033      7.9545403    
  17915000   305.53889     -202.16681      1286.0827      3816.1761      8.9301247    
  17920000   304.2864      -210.49586      1287.3233      3797.8872      7.4841987    
  17925000   294.84496     -229.6184       1336.5458      3743.5579      9.5790738    
  17930000   303.90327     -208.29749      1299.2593      3808.5956     -0.87131239   
  17935000   296.99458     -214.72265      1290.9638      3732.0944      6.5903675    
  17940000   298.38534     -227.34688      1258.3081      3699.2513      8.7385394    
  17945000   296.92403     -219.29325      1196.0141      3631.9433      12.305777    
  17950000   300.33304     -225.36804      1275.895       3736.2342      7.5220333    
  17955000   302.7914      -203.30164      1227.9213      3732.3107      13.528977    
  17960000   299.0814      -214.72322      1280.2017      3739.9931      6.219897     
  17965000   295.70333     -212.60337      1254.8635      3686.5665      7.1640545    
  17970000   296.80407     -218.59031      1289.7745      3725.3338      13.783072    
  17975000   309.45687     -196.34816      1307.1477      3878.096       3.1546229    
  17980000   304.99603     -202.36082      1313.4347      3838.4796      6.388775     
  17985000   302.73792     -209.08884      1211.8082      3709.9321      3.4769509    
  17990000   296.18203     -195.37221      1284.6425      3737.8573      13.754209    
  17995000   298.87267     -214.4686       1280.6689      3738.8483      8.4593586    
  18000000   300.273       -228.72515      1255.6564      3712.1015      11.223863    
  18005000   307.43184     -213.10742      1238.5622      3774.6426      7.0195968    
  18010000   301.63392     -206.36888      1265.0251      3755.9966      7.2628171    
  18015000   299.46643     -212.07133      1287.2243      3753.1106      7.0942905    
  18020000   296.30212     -193.18486      1287.3303      3743.8065      6.8886543    
  18025000   302.46378     -202.69702      1259.0406      3761.1049      4.1785644    
  18030000   305.63714     -201.08817      1294.5243      3826.5748      6.8985197    
  18035000   308.59182     -191.88032      1229.8132      3797.4937      16.553124    
  18040000   302.5226      -216.9652       1287.9674      3776.2894      7.3053654    
  18045000   306.98146     -221.52304      1247.9897      3771.627       10.35735     
  18050000   291.39008     -211.38328      1266.5616      3660.9138      5.8507477    
  18055000   297.34558     -217.92836      1316.4772      3757.5409      8.111032     
  18060000   306.87474     -193.29661      1283.1186      3834.0279      8.5265111    
  18065000   304.47497     -201.7305       1289.5566      3810.5722      8.8458753    
  18070000   295.42216     -191.13624      1279.5684      3730.2242      7.8338101    
  18075000   292.63397     -193.81315      1280.0116      3703.0573      7.0194389    
  18080000   299.51291     -204.83232      1278.2329      3751.7739      4.5004898    
  18085000   303.24086     -200.88237      1281.727       3792.5549      10.417298    
  18090000   298.28309     -205.19308      1283.696       3745.8786      0.51568081   
  18095000   301.10839     -200.82796      1267.344       3759.1568      11.20148     
  18100000   297.91707     -202.51268      1311.629       3773.2189      7.4837831    
  18105000   301.29946     -194.76563      1324.448       3824.0318      5.7592688    
  18110000   295.3823      -221.19297      1248.1064      3668.349       12.635552    
  18115000   307.65179     -197.14322      1266.9463      3820.9577      3.2782426    
  18120000   301.5629      -214.397        1286.9598      3769.2679      8.795164     
  18125000   300.76428     -214.15741      1344.3944      3819.8006      6.8843457    
  18130000   302.89338     -203.98277      1291.2892      3795.9093      9.021678     
  18135000   298.53715     -207.23143      1301.9239      3764.34        4.6694517    
  18140000   303.54012     -204.39326      1275.0348      3785.0278      10.984891    
  18145000   292.44654     -198.53579      1347.6139      3764.2608      1.7034381    
  18150000   294.64441     -211.08662      1277.7593      3701.5097      6.0094246    
  18155000   299.13016     -214.83285      1311.8743      3771.992       4.4869342    
  18160000   295.37374     -207.72853      1271.0724      3704.7029      2.0827547    
  18165000   309.72213     -193.3468       1319.6017      3895.9233      11.387202    
  18170000   306.6279      -201.78456      1265.7102      3805.9242      2.3098994    
  18175000   302.00316     -208.29331      1267.3446      3759.6935      3.5031143    
  18180000   311.57486     -191.22012      1291.7666      3886.7829      13.981492    
  18185000   295.37238     -198.57285      1232.9398      3675.7138      13.211601    
  18190000   296.27742     -205.89174      1359.2356      3802.7841      7.7490337    
  18195000   305.44484     -206.76568      1242.4577      3767.1112      16.875229    
  18200000   294.82475     -217.08935      1299.265       3718.6254     -0.29863382   
  18205000   297.00523     -199.21093      1266.6149      3723.3525      3.4943047    
  18210000   299.9005      -207.28439      1288.465       3763.0199      2.2797451    
  18215000   299.84319     -205.09433      1274.7274      3750.9599      10.937037    
  18220000   298.41433     -201.44216      1356.9041      3824.0112      9.762724     
  18225000   305.41185     -210.50306      1245.2215      3765.8426      10.168794    
  18230000   298.58224     -193.54811      1270.1259      3746.6286      8.3324705    
  18235000   298.24884     -212.87397      1332.2516      3786.447       7.5452115    
  18240000   295.02842     -217.1815       1286.0679      3707.1574     -4.6973106    
  18245000   307.15245     -218.40965      1268.3402      3796.6199      12.117065    
  18250000   300.41483     -203.95869      1277.3537      3759.8337      8.505623     
  18255000   305.37749     -222.30645      1288.2501      3796.7605      2.1316112    
  18260000   301.78861     -217.44548      1272.0885      3753.3666      1.0506112    
  18265000   299.67094     -189.049        1247.5822      3738.3197      15.07289     
  18270000   295.25518     -197.03122      1257.0037      3700.2713      9.0769265    
  18275000   296.95989     -222.49351      1297.8637      3730.9133      3.8586777    
  18280000   295.50451     -192.51134      1207.9662      3657.9833      11.688551    
  18285000   302.69374     -221.03419      1284.524       3770.3074      7.0660506    
  18290000   294.85286     -208.94736      1278.8472      3706.601       6.8125511    
  18295000   309.44296     -202.56415      1341.6126      3906.2205      9.3538134    
  18300000   299.54533     -200.9356       1293.4357      3771.1633      6.6143551    
  18305000   297.67646     -208.00929      1287.4664      3741.4081      1.3008496    
  18310000   299.75461     -200.80042      1276.4636      3756.1979      4.4063958    
  18315000   300.97449     -197.42366      1300.8472      3794.8669      5.3698658    
  18320000   296.99211     -217.07837      1306.1656      3744.9185     -1.2687741    
  18325000   296.11962     -212.29354      1263.1016      3698.8371      8.8723265    
  18330000   306.42668     -218.04575      1266.6269      3788.7804      9.7693815    
  18335000   296.70539     -209.84044      1287.5721      3730.9988      7.4911521    
  18340000   299.91223     -211.88297      1288.2823      3758.3435      8.3044982    
  18345000   292.55305     -209.54596      1282.7547      3689.3439      12.136712    
  18350000   301.64722     -206.50007      1284.8785      3775.8377      6.0655188    
  18355000   300.27416     -218.54846      1256.5772      3723.2094      4.2427868    
  18360000   302.04239     -212.92111      1294.1571      3782.229       6.651449     
  18365000   296.55139     -223.86859      1314.9954      3743.0168     -0.44978978   
  18370000   290.80081     -211.538        1279.4905      3668.4185      7.0254408    
  18375000   301.65985     -213.32387      1288.5904      3772.8386      3.3111225    
  18380000   302.96386     -209.74406      1285.1433      3784.6323      12.654598    
  18385000   298.78034     -216.15586      1252.7546      3708.421       5.2743697    
  18390000   298.35481     -202.10045      1302.9945      3768.9111      3.4100989    
  18395000   301.93129     -205.48782      1242.0039      3736.5156      9.1942093    
  18400000   294.93084     -202.30844      1268.4945      3703.5845      16.723277    
  18405000   303.14141     -208.98756      1304.3288      3806.1621      7.1007274    
  18410000   303.5417      -195.41633      1295.5947      3814.5788      14.116015    
  18415000   296.70261     -205.92271      1294.8228      3742.1424      2.6610439    
  18420000   295.22875     -201.41274      1291.1602      3729.8099      11.619705    
  18425000   297.5505      -199.97233      1247.6177      3708.4699      17.496887    
  18430000   300.0997      -225.85633      1325.7046      3783.4688      11.842966    
  18435000   302.14294     -204.67783      1310.5566      3807.771       5.9871026    
  18440000   299.72885     -214.99441      1212.4126      3677.7225      10.020014    
  18445000   303.72216     -205.38631      1280.6833      3791.3112      9.3006594    
  18450000   304.7339      -220.56518      1294.1783      3798.6747      1.5592091    
  18455000   301.91681     -200.44547      1295.5069      3794.9314      7.2350801    
  18460000   305.60024     -211.22582      1264.791       3786.374       17.602985    
  18465000   298.25644     -195.54482      1301.5972      3773.1897      5.6119843    
  18470000   297.83685     -203.46166      1303.2249      3763.1485      13.716839    
  18475000   302.9448      -221.38058      1288.7403      3776.4224      5.0082628    
  18480000   302.30863     -211.04869      1307.6901      3800.0152      9.7866571    
  18485000   295.2021      -212.01525      1296.1902      3723.9991      11.968017    
  18490000   295.91543     -221.00471      1294.1023      3719.3006      8.3233788    
  18495000   304.2314      -228.56871      1273.8409      3765.8402      7.879074     
  18500000   298.6973      -205.02198      1251.068       3717.1258      7.7363988    
  18505000   306.01529     -212.66373      1260.2202      3784.0769      6.9613475    
  18510000   301.43682     -193.07009      1261.2735      3763.7811      8.9503835    
  18515000   292.03816     -211.85589      1296.189       3695.864       1.6367494    
  18520000   296.32865     -198.35502      1286.776       3738.3192      5.523343     
  18525000   293.74219     -209.08484      1274.2923      3691.9764      0.60882699   
  18530000   306.60056     -215.70358      1282.0846      3808.1352      2.3063199    
  18535000   292.27948     -182.50446      1282.7114      3713.8957      11.778176    
  18540000   293.65085     -209.04934      1293.803       3710.7059      5.608717     
  18545000   300.85092     -212.80274      1278.0013      3755.5369      7.9112057    
  18550000   296.2819      -228.74697      1259.5238      3680.257       5.4261527    
  18555000   298.50299     -217.93436      1256.8274      3708.2352      6.2991269    
  18560000   301.27586     -211.43943      1265.6784      3748.3773      7.0111751    
  18565000   294.97941     -229.76622      1312.8432      3720.9098      4.1814076    
  18570000   301.14471     -227.20718      1245.7902      3711.5485      0.84937768   
  18575000   293.86364     -216.38628      1272.1984      3683.6672      11.144554    
  18580000   292.33034     -225.3687       1260.3241      3649.0991      15.194162    
  18585000   299.63244     -209.40457      1263.9033      3733.9409      10.974851    
  18590000   299.89396     -209.71141      1290.1588      3762.2282      7.3156183    
  18595000   289.26188     -206.61611      1292.2191      3672.3072      16.685492    
  18600000   303.79533     -194.43908      1240.4202      3762.6497      7.3673323    
  18605000   298.14749     -198.47999      1285.7702      3753.4534      4.3899491    
  18610000   291.72744     -191.19534      1285.0792      3702.6361      5.7681337    
  18615000   304.77658     -195.03938      1289.9866      3820.3906      6.1232428    
  18620000   300.44756     -205.93024      1302.9777      3783.7788      6.1187783    
  18625000   306.86884     -210.52708      1287.8318      3821.4578      9.8371164    
  18630000   299.78559     -211.53157      1256.7308      3726.0109     -0.30116954   
  18635000   298.88699     -191.39902      1346.7055      3828.0825      8.8239648    
  18640000   294.86106     -200.48913      1237.9961      3674.2814      11.616983    
  18645000   307.0306      -194.26727      1256.5226      3807.855       5.5449812    
  18650000   306.59199     -212.45353      1264.5545      3793.7783      7.3832513    
  18655000   293.9047      -225.71491      1256.2375      3658.7449      3.1834072    
  18660000   303.6486      -209.4315       1327.2777      3833.2026      0.10716119   
  18665000   290.08316     -205.19868      1247.5596      3636.4093      16.548196    
  18670000   300.15329     -186.73114      1311.7879      3809.1566      12.888438    
  18675000   297.08869     -205.58322      1292.5645      3743.6762      8.4850599    
  18680000   302.68093     -196.07151      1271.2134      3781.845       2.6576572    
  18685000   302.54788     -203.53726      1250.5737      3752.5497      11.544962    
  18690000   298.90604     -210.86472      1261.2572      3723.3388      14.415568    
  18695000   301.47107     -207.06544      1287.2862      3776.1048      12.855827    
  18700000   302.72104     -208.72391      1322.0309      3820.3688      13.261598    
  18705000   295.16449     -209.62433      1259.6209      3689.4844      2.8416625    
  18710000   305.50382     -202.58562      1270.6412      3800.0022      10.255903    
  18715000   296.74621     -198.91414      1269.5254      3724.2435      14.759266    
  18720000   301.73879     -209.24618      1263.8053      3752.8372      3.7865678    
  18725000   297.48688     -229.78697      1298.4639      3728.9326      2.404525     
  18730000   297.57723     -208.94837      1301.7631      3753.8783      9.2672125    
  18735000   293.30448     -204.97876      1247.3989      3665.275       14.432197    
  18740000   301.34715     -207.38755      1264.1497      3751.5381      9.5345937    
  18745000   297.37879     -202.60822      1265.5411      3722.222       9.2996369    
  18750000   305.21339     -221.66115      1262.8747      3770.563       11.177259    
  18755000   286.37819     -218.82564      1288.6493      3630.7407      5.9750626    
  18760000   302.78866     -203.28265      1285.6568      3790.0406      12.824534    
  18765000   304.72559     -200.38449      1298.8145      3823.4173      5.0402464    
  18770000   300.8266      -232.36776      1287.2201      3744.9732      12.150082    
  18775000   299.99607     -216.88924      1242.1226      3707.9273      2.8591461    
  18780000   302.79524     -195.4729       1241.8667      3754.1192      5.925589     
  18785000   298.75963     -227.16012      1300.3906      3744.8676      7.8573553    
  18790000   311.9886      -208.54077      1238.7489      3820.1444      11.172365    
  18795000   304.77051     -203.3732       1234.777       3756.7928      4.9465876    
  18800000   297.42219     -218.83068      1289.5767      3730.4232      5.9231343    
  18805000   295.40456     -209.45021      1258.3609      3690.5453      2.4135381    
  18810000   304.12668     -207.64949      1330.7089      3842.691       7.2015931    
  18815000   302.73948     -217.39019      1284.7779      3774.6143      8.524225     
  18820000   297.09367     -193.31705      1261.3686      3724.7909      1.7844483    
  18825000   302.78904     -203.27218      1289.2734      3793.671       9.322872     
  18830000   294.74449     -192.59984      1261.4823      3704.6144      5.032712     
  18835000   298.59955     -210.61689      1298.8798      3758.4684      8.7944981    
  18840000   299.40494     -201.45518      1276.1343      3752.0869      8.5461083    
  18845000   300.91238     -235.01888      1315.9114      3771.7805      15.055981    
  18850000   299.86993     -190.03894      1300.5537      3792.0806      3.6057512    
  18855000   306.41848     -216.96883      1270.746       3793.903       12.725756    
  18860000   298.22238     -197.10953      1250.806       3720.5292      8.5637897    
  18865000   303.02473     -194.78192      1290.9055      3805.9011      4.3111475    
  18870000   303.59985     -211.91939      1301.6145      3804.6156      4.541557     
  18875000   297.3461      -219.13907      1285.878       3725.7357      12.045781    
  18880000   305.83308     -206.21989      1242.3457      3771.0167      6.5912757    
  18885000   298.55476     -201.72291      1258.9907      3727.0729      4.3269428    
  18890000   301.99794     -204.54773      1270.9664      3767.0142      7.8171746    
  18895000   298.60582     -190.42925      1251.5518      3731.3843      8.8830246    
  18900000   297.24575     -197.61444      1330.4741      3790.959       10.469308    
  18905000   303.04369     -199.62686      1301.3378      3811.658       9.6940232    
  18910000   298.31439     -190.06153      1251.4877      3729.0818      10.829082    
  18915000   297.65957     -211.4911       1263.6346      3713.9434      4.6884685    
  18920000   299.79286     -223.18456      1282.1527      3739.8449      5.2440341    
  18925000   300.57133     -202.93151      1272.3143      3757.2209      4.057959     
  18930000   296.61396     -227.04276      1261.589       3686.9958      5.545285     
  18935000   302.31858     -218.49487      1293.8199      3778.7878      4.5227623    
  18940000   299.68806     -224.52929      1281.2781      3736.6883      6.7407432    
  18945000   299.40737     -242.18616      1288.8493      3724.0926      3.7288123    
  18950000   294.88201     -223.838        1290.2541      3703.3779      8.5152448    
  18955000   293.87492     -207.56739      1306.3816      3726.7702      4.8069645    
  18960000   295.37654     -213.8081       1286.9196      3714.4956      9.6954905    
  18965000   302.78889     -209.29932      1279.9981      3778.3672      6.3327531    
  18970000   306.63709     -217.13641      1262.4625      3787.4068      8.239222     
  18975000   309.97993     -193.91395      1321.4456      3899.5055      8.9104795    
  18980000   297.77794     -203.43805      1270.7819      3730.2023      8.2037125    
  18985000   305.61719     -210.21565      1240.7625      3763.5073      10.172912    
  18990000   296.89261     -220.10779      1305.8877      3740.7213      12.556214    
  18995000   302.02979     -201.33526      1261.8699      3761.415       7.3173675    
  19000000   297.13418     -211.04051      1349.3338      3795.395       4.3473873    
  19005000   300.75373     -198.03727      1292.7229      3784.1549      12.365314    
  19010000   291.57949     -209.45317      1333.7246      3731.7007      13.282075    
  19015000   299.98133     -222.11013      1304.428       3764.88        6.2428686    
  19020000   299.81607     -190.21494      1280.7437      3771.613       6.8391797    
  19025000   305.57116     -200.57188      1249.3018      3781.2787      8.6522659    
  19030000   290.60258     -216.10378      1270.2396      3652.8291      4.8926076    
  19035000   293.12979     -206.75183      1244.9139      3659.4547      6.5065594    
  19040000   302.69343     -216.39015      1218.0042      3708.4289      7.7869986    
  19045000   290.73732     -222.16681      1280.5048      3658.2362      1.0715652    
  19050000   298.86128     -218.54718      1261.9497      3715.9486      4.4675372    
  19055000   295.97201     -183.02362      1254.1584      3717.8438      7.5211121    
  19060000   301.63068     -202.52996      1277.8841      3772.6654      7.1610021    
  19065000   301.44552     -211.92557      1267.855       3751.5849      3.6291732    
  19070000   302.95699     -210.1197       1306.2832      3805.3352      3.0112524    
  19075000   293.76892     -207.60051      1237.6537      3657.0613     -1.692495     
  19080000   302.40385     -214.71557      1268.7949      3758.3046      9.0410199    
  19085000   297.30849     -204.12544      1288.7775      3743.3125      6.8992221    
  19090000   307.75057     -208.16624      1208.6549      3752.5267      5.6933589    
  19095000   301.77972     -207.80852      1309.2352      3800.0707      11.088791    
  19100000   301.64364     -228.22843      1264.6228      3733.8216      11.264986    
  19105000   301.68362     -211.16684      1267.0959      3753.7137      2.9529054    
  19110000   302.04709     -202.58492      1298.4396      3796.8897      5.4484476    
  19115000   298.56325     -225.74265      1323.4529      3767.5913      9.4524244    
  19120000   307.37348     -208.11383      1286.0317      3826.5838      13.867713    
  19125000   297.70627     -223.89482      1323.7137      3762.0364      7.0684761    
  19130000   297.26559     -205.72082      1312.1671      3764.723       7.7551875    
  19135000   300.33087     -201.8744       1245.3342      3729.1476      6.4121244    
  19140000   296.54632     -200.60899      1317.1273      3768.3631      13.620649    
  19145000   304.44192     -207.68306      1310.8256      3825.5932      11.434252    
  19150000   300.0866      -223.99405      1264.4722      3723.9817      6.2147527    
  19155000   300.80556     -209.73121      1248.5736      3728.775       8.7813173    
  19160000   296.55973     -195.83999      1247.2356      3703.3603      6.7749422    
  19165000   307.11106     -194.14572      1277.3359      3829.5094      8.2685909    
  19170000   300.33316     -215.34955      1306.9788      3777.3376      5.1289211    
  19175000   292.87978     -197.7116       1264.4702      3685.8155      3.8704071    
  19180000   298.43122     -189.68534      1298.8566      3777.8716      8.6385581    
  19185000   302.05576     -213.09247      1279.0659      3767.086       7.827221     
  19190000   305.56501     -200.98261      1295.7117      3827.2229      7.1615458    
  19195000   296.74746     -199.98458      1290.175       3743.8338      12.900279    
  19200000   291.90001     -205.40037      1263.8348      3668.7298      0.20062804   
  19205000   301.45938     -218.84177      1286.9376      3763.8752      8.8883752    
  19210000   300.91146     -208.19848      1288.7981      3771.4793      8.0743526    
  19215000   295.01857     -187.59478      1286.5682      3737.1564      17.869312    
  19220000   298.49644     -209.21448      1298.7904      3758.8594      3.3335442    
  19225000   299.13076     -220.10491      1270.3668      3725.2178      12.065239    
  19230000   291.51987     -203.82622      1317.5784      3720.6483      6.8753292    
  19235000   296.09778     -187.05528      1251.4996      3712.278       10.415838    
  19240000   303.82426     -214.6249       1283.6919      3785.9942      9.7585081    
  19245000   293.49599     -220.60918      1299.2526      3703.2108      8.2674988    
  19250000   301.76669     -227.12512      1260.8688      3732.2713      7.2683605    
  19255000   307.23387     -196.50033      1298.0855      3849.0026      11.759485    
  19260000   300.43029     -212.15218      1244.3849      3718.8096      4.4681697    
  19265000   302.15166     -205.3665       1287.8         3784.4036      17.084247    
  19270000   300.60749     -207.05101      1265.1092      3746.2197      1.9145656    
  19275000   308.45751     -197.7612       1262.8662      3823.4647      16.911325    
  19280000   305.58246     -210.14517      1214.6239      3737.1285      7.9165232    
  19285000   296.66698     -209.75484      1291.9166      3735.0856      3.1373927    
  19290000   297.26405     -204.83295      1260.0922      3713.5223      5.7632219    
  19295000   295.71417     -218.14051      1280.3506      3706.6134      10.226423    
  19300000   297.35511     -214.24453      1310.7199      3755.5527      7.0437797    
  19305000   296.16195     -199.7465       1305.6045      3754.2656      7.5523817    
  19310000   296.24948     -197.58123      1335.4498      3787.0588      5.4833444    
  19315000   307.89147     -210.73925      1240.1884      3782.7471      9.1905093    
  19320000   304.73202     -205.03519      1311.6924      3831.702       7.2516576    
  19325000   304.97658     -189.9408       1295.2211      3832.5121      4.7129812    
  19330000   296.68157     -215.86777      1279.9701      3717.1566      0.94854342   
  19335000   299.2348      -200.38035      1291.305       3766.8109      9.2296971    
  19340000   304.03469     -215.4162       1309.5302      3812.923       4.6314723    
  19345000   299.05863     -227.81105      1240.8195      3687.3193      3.9510286    
  19350000   300.22648     -212.91643      1262.3738      3734.2117      1.9089715    
  19355000   294.39644     -203.98799      1250.781       3679.4127      14.018048    
  19360000   306.43105     -190.94876      1275.9444      3825.2339      13.986486    
  19365000   302.40346     -213.73306      1261.4702      3751.959       13.52136     
  19370000   304.11186     -207.47614      1287.1198      3799.1427      11.738855    
  19375000   300.64523     -200.93861      1306.6421      3794.2025      7.2374149    
  19380000   301.20151     -191.67981      1283.4582      3785.2519      5.9179503    
  19385000   306.21591     -213.54579      1247.9563      3772.7249      8.9416089    
  19390000   298.57377     -207.09152      1295.8375      3758.721       11.64025     
  19395000   306.68437     -223.92287      1293.7342      3812.315       7.4479242    
  19400000   310.9914      -218.44795      1318.9078      3881.4787      9.2700877    
  19405000   299.73769     -203.25275      1296.9005      3774.0311      6.0271223    
  19410000   289.45467     -195.02228      1283.8209      3677.2268      2.8689062    
  19415000   298.75414     -201.69246      1319.8729      3789.7684      5.824333     
  19420000   293.77911     -202.87618      1281.0261      3705.2491      8.6329934    
  19425000   300.87954     -217.26631      1281.9773      3755.3053      4.7781871    
  19430000   301.05975     -194.97939      1221.2936      3718.52        10.973739    
  19435000   303.66807     -199.92105      1302.6431      3818.2525      6.6419553    
  19440000   305.76562     -204.87218      1317.21        3846.6255      5.8682501    
  19445000   290.56036     -212.58674      1272.0648      3657.7937      5.5088103    
  19450000   302.09314     -209.024        1247.0615      3739.4843      7.2893672    
  19455000   297.93374     -228.80915      1260.7824      3696.2249      5.5466692    
  19460000   300.65433     -221.43165      1280.7312      3747.88        4.1179816    
  19465000   303.34274     -203.62392      1297.4883      3806.4856      10.208386    
  19470000   300.53255     -216.54529      1337.5016      3808.4476     -0.7535662    
  19475000   302.74182     -219.5407       1332.5176      3820.2244      7.1235929    
  19480000   302.0803      -207.34247      1278.1825      3772.1721      5.5665389    
  19485000   299.3865      -207.13881      1262.3006      3732.4047      10.197759    
  19490000   300.60696     -211.58685      1264.8485      3741.4185      12.231783    
  19495000   300.57343     -223.70692      1265.6206      3729.7706      5.2128878    
  19500000   299.17103     -201.41697      1269.2664      3743.1654      4.3242703    
  19505000   294.52524     -205.14611      1305.0982      3733.7235      9.7028594    
  19510000   298.3261      -220.00397      1290.4239      3738.1803      5.7334234    
  19515000   298.32808     -213.31301      1305.2598      3759.7247      1.1943168    
  19520000   304.07349     -207.79476      1246.5421      3757.9033      15.142138    
  19525000   307.76759     -189.56046      1272.1387      3834.7684      9.2181624    
  19530000   295.41387     -190.69031      1301.0535      3752.0811      8.0189843    
  19535000   294.74018     -204.28462      1243.9767      3675.3856      10.718105    
  19540000   302.2584      -205.15512      1269.8266      3767.5962      5.8214008    
  19545000   307.84439     -203.51055      1341.1397      3890.5061      7.6526897    
  19550000   300.73443     -210.84553      1307.141       3785.5921      5.0714256    
  19555000   299.55583     -200.66838      1315.798       3793.8867      0.87557007   
  19560000   302.87608     -204.66493      1250.4602      3754.2435      10.023586    
  19565000   305.35652     -191.69089      1324.3133      3863.2517      8.5138124    
  19570000   299.35904     -202.5167       1230.1439      3704.6245      11.539867    
  19575000   307.13443     -204.45514      1257.7099      3799.783       14.874092    
  19580000   307.26571     -197.57577      1330.9009      3881.0272      12.170334    
  19585000   296.16803     -217.63231      1268.8648      3699.6944      5.9303712    
  19590000   300.95474     -202.19186      1287.4814      3776.5563      6.4297962    
  19595000   298.74335     -189.05098      1242.7661      3725.2067      6.3695288    
  19600000   293.55357     -224.61121      1276.9419      3677.4129      5.9013419    
  19605000   299.55117     -214.48095      1326.6553      3790.8898      7.1653743    
  19610000   304.4726      -202.48346      1259.1444      3779.3859      10.460036    
  19615000   300.52994     -206.74665      1277.8946      3758.616       4.133089     
  19620000   293.9465      -212.04719      1224.5562      3641.105       6.1010741    
  19625000   295.85003     -207.26186      1251.3708      3689.7272      8.6772886    
  19630000   296.47342     -228.28508      1273.3962      3696.3039      9.9708264    
  19635000   293.46734     -200.49297      1224.8006      3648.6189      5.3045413    
  19640000   299.25415     -222.17504      1242.838       3696.7223      7.3259459    
  19645000   298.99817     -204.21731      1283.0545      3752.6074      13.871572    
  19650000   307.68125     -204.93962      1273.3968      3819.8753      3.1089857    
  19655000   297.16417     -203.60255      1300.0181      3753.7854      2.7078979    
  19660000   308.86353     -197.73175      1245.79        3810.0487      8.340265     
  19665000   303.48697     -191.10782      1308.3165      3831.1197     -0.82933125   
  19670000   308.15434     -202.47518      1240.7328      3793.9062      4.7681579    
  19675000   297.72468     -208.29039      1289.1236      3743.2154      7.9523848    
  19680000   300.02793     -207.88334      1291.5267      3766.6222      0.22205172   
  19685000   303.80073     -214.3832       1237.3933      3739.7269      13.919576    
  19690000   292.0083      -198.57657      1318.4224      3731.1097      11.920718    
  19695000   298.89169     -199.75192      1272.3879      3745.4541     -0.19933738   
  19700000   303.79868     -207.07783      1284.659       3794.2796      10.416332    
  19705000   299.72417     -200.15479      1266.0457      3746.1533      13.97983     
  19710000   295.03161     -204.31718      1230.0649      3664.0473      9.1498581    
  19715000   292.56316     -210.10042      1289.5387      3695.6639      1.7738558    
  19720000   287.59242     -206.48164      1275.1914      3640.4849      6.4758013    
  19725000   306.12706     -214.57286      1311.8936      3834.8406      6.9457766    
  19730000   293.46702     -204.00122      1273.5866      3693.8937      4.663888     
  19735000   293.70831     -205.54127      1264.826       3685.7507      10.774918    
  19740000   299.49145     -207.55402      1314.3188      3784.9462      9.2960315    
  19745000   291.40554     -214.48508      1316.5351      3707.9238      1.9141745    
  19750000   302.76964     -216.19647      1251.2155      3742.5153      6.3136012    
  19755000   300.86203     -201.19922      1261.9343      3751.1728      3.1353582    
  19760000   302.62672     -208.99514      1291.0513      3788.2745      7.5552886    
  19765000   300.85544     -207.53833      1334.6408      3817.4812      8.5002941    
  19770000   302.21341     -201.77595      1315.5843      3816.3307      6.6344228    
  19775000   295.03369     -202.45601      1271.4078      3707.27        9.5212618    
  19780000   289.46549     -216.41334      1318.0852      3690.1969      5.0322683    
  19785000   306.02675     -197.6137       1311.7555      3850.7646      9.6283413    
  19790000   305.64716     -205.52105      1273.7418      3801.4492      8.4803913    
  19795000   299.41694     -205.71433      1308.9303      3780.731       5.632903     
  19800000   299.31025     -205.12435      1271.4012      3742.8379      4.154535     
  19805000   294.35796     -217.36687      1265.0977      3680.0063      10.535413    
  19810000   302.07298     -211.92042      1249.157       3738.5031      8.6729069    
  19815000   295.12036     -207.13276      1245.9572      3677.9176      13.733996    
  19820000   299.46974     -220.51213      1267.8354      3725.3104      6.9729253    
  19825000   296.9935      -206.8547       1306.0962      3755.0852      7.9036148    
  19830000   298.95687     -232.61851      1255.3727      3696.1551      9.8323685    
  19835000   295.84478     -224.43352      1277.1057      3698.2435      14.461089    
  19840000   301.70242     -224.90609      1234.9721      3708.0189      10.988983    
  19845000   302.2001      -217.21158      1290.6628      3775.8545      6.8310891    
  19850000   300.69329     -212.71592      1235.1284      3711.3413      9.8754778    
  19855000   301.35936     -201.22015      1297.8256      3791.4904      9.3831179    
  19860000   299.89962     -209.38589      1308.9492      3781.3947      6.6247042    
  19865000   304.25023     -196.58796      1285.0726      3809.221       7.2720073    
  19870000   293.6832      -211.42411      1236.0776      3650.8949      7.5994411    
  19875000   306.01048     -208.77313      1254.2715      3781.9757      16.853786    
  19880000   300.51785     -203.11112      1257.1586      3741.4073      3.6237326    
  19885000   297.29494     -213.29138      1254.5156      3699.7635      7.619376     
  19890000   302.11144     -201.48127      1236.7044      3736.8336      8.230358     
  19895000   293.21888     -218.68552      1295.6155      3699.0194      0.97543454   
  19900000   296.24812     -201.37887      1257.9646      3705.7639      12.919986    
  19905000   300.564       -203.17068      1293.8695      3778.4714      5.5099965    
  19910000   302.62733     -203.64255      1308.6329      3811.2141      4.0463467    
  19915000   298.05079     -200.56093      1261.0182      3725.7556      8.9980995    
  19920000   293.92136     -208.60408      1262.3856      3682.1527      6.2309525    
  19925000   293.1678      -210.47235      1291.6532      3702.8134      9.2654395    
  19930000   300.9593      -209.67827      1298.845       3780.4743      8.9381757    
  19935000   304.82419     -216.20266      1259.8677      3769.534       6.8788907    
  19940000   296.94935     -204.28007      1322.4346      3773.6033      2.7384411    
  19945000   300.74118     -213.59507      1296.6259      3772.3879      1.0170749    
  19950000   299.55782     -211.21092      1321.3094      3788.8734      2.3929221    
  19955000   304.71777     -213.93631      1309.0821      3820.0631      11.704419    
  19960000   301.86221     -215.27304      1289.6156      3773.7243      2.8236241    
  19965000   304.26608     -210.30593      1272.0654      3782.6377      2.6561733    
  19970000   302.51703     -224.41469      1295.9037      3776.7264      5.5553727    
  19975000   300.0817      -192.12332      1261.3666      3752.7029      10.87114     
  19980000   306.68666     -195.47189      1230.544       3777.5962      4.4788336    
  19985000   300.58444     -207.18256      1300.3127      3781.0855      2.7639347    
  19990000   296.87013     -207.56851      1269.6715      3716.8434      14.171287    
  19995000   302.24258     -225.0758       1309.3819      3787.0893      6.6855367    
  20000000   300.62452     -208.42293      1315.3447      3795.2356      8.057578     
  20005000   297.69604     -216.83468      1286.3491      3731.6405      9.6623648    
  20010000   302.905       -217.7049       1296.8264      3787.8284      4.2411725    
  20015000   293.27488     -193.18998      1318.9945      3748.3947      5.602683     
  20020000   291.63685     -196.67332      1266.9088      3678.1776      4.1312673    
  20025000   306.75358     -187.45318      1283.9185      3839.5878      7.6042661    
  20030000   304.96559     -207.17411      1295.3671      3815.3264      10.243221    
  20035000   304.19609     -205.18967      1279.1201      3794.1827      6.8320544    
  20040000   298.44579     -206.96171      1253.7634      3715.6323      2.909899     
  20045000   308.35155     -195.52453      1286.9489      3848.8366     -0.93994545   
  20050000   308.29013     -197.68141      1273.0467      3832.2282      10.973905    
  20055000   296.96467     -210.85169      1280.472       3725.2062      15.498342    
  20060000   298.01419     -196.58331      1298.8661      3767.2539      5.7524875    
  20065000   297.40554     -203.96077      1299.3847      3754.9522      10.877353    
  20070000   296.2806      -198.48694      1281.1617      3732.1433      4.8401941    
  20075000   303.85958     -214.27125      1286.6903      3789.6621      8.8657696    
  20080000   304.2022      -215.79541      1275.1609      3779.6725      17.141811    
  20085000   292.8603      -216.44911      1315.3684      3717.802       1.3843024    
  20090000   300.11453     -215.21282      1291.71        3760.2504      4.2307437    
  20095000   298.97731     -206.62998      1295.8441      3762.7979      9.4306034    
  20100000   308.23136     -198.22207      1296.835       3854.9504      7.3348859    
  20105000   305.38201     -207.38541      1202.1793      3725.6512      6.0720235    
  20110000   296.94124     -213.00546      1272.4113      3714.7821      9.2270295    
  20115000   298.09251     -213.18543      1260.1214      3712.6074      8.6468215    
  20120000   295.52162     -218.01519      1286.2727      3710.939       5.8030866    
  20125000   303.66184     -214.67627      1282.9364      3783.7349      8.7111667    
  20130000   301.18038     -219.06282      1285.7944      3760.016       10.483555    
  20135000   298.15136     -212.76959      1342.7656      3796.1937     -0.17333051   
  20140000   293.59936     -210.37577      1304.1675      3719.2835      10.062551    
  20145000   304.98078     -224.02875      1251.1987      3754.4392      10.96778     
  20150000   299.07553     -187.61413      1323.655       3810.503       13.032715    
  20155000   296.66224     -211.86634      1311.1805      3752.1954      5.6969546    
  20160000   299.55477     -209.52268      1253.8906      3723.1155      12.072811    
  20165000   302.73067     -206.71031      1274.4202      3774.8577      9.1383697    
  20170000   301.15438     -187.07166      1272.2062      3778.1865      6.8437742    
  20175000   297.75661     -207.64868      1283.7599      3738.7789      10.123188    
  20180000   299.15249     -215.19803      1279.3588      3739.311       6.6691955    
  20185000   299.30521     -215.03728      1276.3331      3737.8117      1.5397091    
  20190000   308.23122     -206.74154      1265.8886      3815.4832      15.738945    
  20195000   305.78206     -218.42029      1266.9177      3782.9321      6.1742788    
  20200000   301.9347      -212.51021      1288.1698      3775.6895      10.814585    
  20205000   294.67194     -198.37159      1268.1657      3704.8773      11.398124    
  20210000   299.25593     -196.61992      1284.0338      3763.4891      5.1497491    
  20215000   294.03629     -190.36597      1350.5342      3789.5673     -0.22622895   
  20220000   297.12433     -219.78113      1291.7669      3728.9993      5.1081172    
  20225000   305.87371     -192.47934      1310.2896      3853.0645      5.1560952    
  20230000   304.65096     -198.27631      1244.6734      3770.717       6.527312     
  20235000   307.54227     -215.7535       1243.993       3778.4147      7.7810767    
  20240000   297.17191     -206.63506      1274.6691      3725.4731      13.429101    
  20245000   296.32277     -201.19879      1291.623       3740.2698      11.733269    
  20250000   301.39665     -206.35727      1327.7955      3816.6567      4.6335674    
  20255000   298.08286     -203.61033      1290.0656      3752.0404      6.6758495    
  20260000   300.17549     -199.83203      1208.86        3693.3263      13.521791    
  20265000   290.42906     -205.37511      1307.9137      3699.6802      8.8251299    
  20270000   298.1757      -216.55739      1281.5096      3731.3676      7.8690067    
  20275000   295.02353     -219.23122      1298.627       3717.6231      8.9211803    
  20280000   305.2237      -211.54023      1259.4566      3777.358       8.9500555    
  20285000   304.88624     -211.072        1285.1919      3800.5438      10.279607    
  20290000   293.84299     -222.90825      1232.1901      3636.9522      12.381753    
  20295000   300.85121     -215.1922       1248.7479      3723.8966      11.828515    
  20300000   303.15207     -208.38654      1254.6958      3757.2255      8.4940112    
  20305000   297.18269     -211.06159      1293.641       3740.1149      3.4345058    
  20310000   297.21302     -211.22382      1298.3072      3744.89        10.944184    
  20315000   297.93938     -218.23642      1271.7405      3717.8062      8.4909495    
  20320000   295.65537     -210.706        1272.5118      3705.6833      8.8737289    
  20325000   300.15268     -229.6985       1320.6587      3775.0545     -5.3814563    
  20330000   299.04187     -211.62244      1323.8492      3786.3879      7.7158711    
  20335000   295.54052     -208.03312      1323.8762      3758.6935      5.395252     
  20340000   305.11982     -217.95734      1268.7183      3779.2737      13.368454    
  20345000   299.91938     -198.10629      1245.1213      3729.0231      6.3846236    
  20350000   304.04367     -202.91394      1270.2682      3786.2435      4.9944232    
  20355000   301.95228     -224.30439      1292.629       3768.5118      15.206944    
  20360000   296.16258     -211.14783      1294.9738      3732.2391      9.0052406    
  20365000   305.86679     -208.03636      1268.7939      3795.9499      11.738953    
  20370000   299.87168     -191.7158       1282.1643      3772.0301      6.4787381    
  20375000   301.06678     -204.9105       1323.6047      3810.9629      9.4184748    
  20380000   298.02303     -210.73458      1246.224       3700.5395      2.5185111    
  20385000   299.4638      -216.68378      1283.482       3744.7324      12.824123    
  20390000   308.38709     -198.85678      1347.463       3906.3363      0.38627914   
  20395000   293.62025     -201.78332      1292.1678      3716.063       4.6994028    
  20400000   304.05253     -212.05964      1271.1126      3778.0215      6.3846492    
  20405000   297.80272     -190.63693      1251.9153      3724.3584      14.470487    
  20410000   301.46779     -195.05926      1297.254       3798.0494      10.64217     
  20415000   307.61777     -214.09534      1281.1323      3817.8874      5.5220363    
  20420000   304.2108      -198.09259      1285.5296      3807.8208      5.4605117    
  20425000   301.09882     -217.95379      1245.6132      3720.2146      5.1397491    
  20430000   289.14153     -225.97079      1257.2548      3616.9119      11.673478    
  20435000   302.42825     -220.38014      1242.7564      3726.8198      11.789465    
  20440000   305.70281     -232.36734      1254.0946      3755.4533      10.124013    
  20445000   297.62087     -221.59376      1282.8462      3722.7063      9.6522685    
  20450000   298.78976     -216.5596       1253.3766      3708.7236      11.778619    
  20455000   300.36965     -204.19036      1261.9107      3743.7549      9.2204404    
  20460000   302.86888     -205.04956      1340.8622      3844.1964      0.57106314   
  20465000   300.16447     -205.96107      1307.3506      3785.5893      9.2825081    
  20470000   305.3026      -200.82169      1278.2654      3807.5908      14.398606    
  20475000   298.1407      -223.07833      1262.2828      3705.3069      6.0378573    
  20480000   304.44853     -197.90023      1254.1257      3778.7352      9.3727659    
  20485000   302.51683     -218.57725      1284.8932      3771.5516      7.859444     
  20490000   299.97386     -228.9411       1255.172       3708.7262      5.8503957    
  20495000   298.82172     -200.22048      1254.2228      3726.1946      13.202968    
  20500000   299.33672     -205.05625      1214.9259      3686.6674      2.1943943    
  20505000   304.70801     -195.4477       1237.3749      3766.7573      9.4445631    
  20510000   297.48737     -211.31254      1294.4934      3743.4409      8.7066648    
  20515000   302.5191      -186.22288      1270.3228      3789.3559      7.1746894    
  20520000   297.97172     -237.2672       1243.1069      3670.431       12.251172    
  20525000   306.19891     -206.35223      1252.9057      3784.7159      7.2755243    
  20530000   296.88974     -215.82059      1292.8302      3731.9254      4.9416781    
  20535000   298.91029     -205.08804      1301.9241      3769.8204      2.6578447    
  20540000   306.18017     -203.65041      1260.477       3794.8213      12.139677    
  20545000   297.68427     -206.62665      1337.1154      3792.5096      5.9564632    
  20550000   300.19584     -214.34033      1331.0279      3801.1679      13.150599    
  20555000   294.15478     -235.92583      1280.2828      3674.8155      11.900711    
  20560000   303.14257     -232.84132      1282.0968      3760.0867     -1.0200944    
  20565000   298.93824     -225.98603      1302.3437      3749.5921      7.9967571    
  20570000   304.86969     -215.70636      1285.6463      3796.2158      8.4736332    
  20575000   299.01461     -217.12648      1253.3153      3710.1061      6.2037159    
  20580000   296.55248     -220.43249      1240.192       3671.6594      8.3347225    
  20585000   304.08914     -216.19223      1257.9793      3761.083       6.3866814    
  20590000   300.45078     -213.51215      1256.6223      3729.8702      7.2416114    
  20595000   310.87701     -221.43641      1273.8203      3832.3798      15.398687    
  20600000   298.24358     -206.70483      1266.6999      3727.0175      7.3176348    
  20605000   297.4797      -224.17623      1256.6226      3692.6378      9.3906712    
  20610000   295.18126     -217.93376      1352.1555      3773.8596      7.6865194    
  20615000   308.11006     -206.48952      1265.372       3814.1352      9.1344335    
  20620000   300.95884     -209.9395       1289.6012      3770.9651      11.22947     
  20625000   289.99997     -215.43338      1302.9095      3680.7806      8.0398422    
  20630000   299.12505     -215.69844      1304.8346      3764.041       10.193794    
  20635000   298.37677     -206.0156       1235.0491      3697.2469      9.3949829    
  20640000   297.68598     -207.26844      1322.8076      3777.5753      12.296581    
  20645000   298.86812     -214.32344      1265.6457      3723.9295      9.7085275    
  20650000   302.12493     -208.24932      1214.0056      3707.4874      8.4588354    
  20655000   307.04335     -190.14749      1267.7912      3823.3574      7.6104764    
  20660000   301.17145     -204.87234      1220.6244      3708.9568      10.012771    
  20665000   305.55411     -206.87746      1272.5823      3798.101       9.9094784    
  20670000   302.63223     -192.20033      1235.1916      3749.2589      12.202491    
  20675000   302.40042     -217.13177      1302.2567      3789.3196      5.8955583    
  20680000   305.87492     -221.97647      1265.2912      3778.5798      12.668382    
  20685000   299.50851     -209.2025       1277.9203      3747.0517      7.8534727    
  20690000   306.11839     -203.78305      1264.8046      3798.4639      11.524418    
  20695000   304.3265      -246.00566      1305.6312      3781.044       4.4355898    
  20700000   297.25923     -207.74226      1282.4065      3732.8841      12.974064    
  20705000   297.3688      -203.95564      1287.2376      3742.4817      4.4496342    
  20710000   299.43645     -223.50068      1221.329       3675.5179      13.030854    
  20715000   302.6839      -191.36386      1325.9047      3841.2705      4.8849931    
  20720000   297.7032      -213.10614      1274.5605      3723.6444      6.937195     
  20725000   299.57075     -207.66883      1318.783       3790.0047      8.0763546    
  20730000   300.46966     -231.83757      1267.0417      3722.1331      7.0587029    
  20735000   306.47282     -219.45915      1303.7577      3824.9104      8.8636642    
  20740000   299.43409     -207.48054      1280.6367      3750.8246      14.731814    
  20745000   295.89265     -209.98065      1318.4254      3754.4441      13.711382    
  20750000   298.17286     -218.5327       1294.7787      3742.636       7.2436035    
  20755000   295.07158     -205.88165      1249.4755      3682.2509      6.7084633    
  20760000   298.04638     -205.8522       1353.0779      3812.4846      8.5101505    
  20765000   303.92458     -204.36736      1308.4175      3821.8744      5.0306189    
  20770000   297.22469     -238.53652      1258.5168      3677.8913      0.92930445   
  20775000   301.42537     -213.58265      1320.6246      3802.5173      4.1680691    
  20780000   296.74237     -184.6868       1263.5367      3732.4478      12.146523    
  20785000   305.06179     -208.00443      1283.6017      3803.591       17.375131    
  20790000   296.96827     -210.00004      1318.0005      3763.6184      7.7858156    
  20795000   294.67175     -206.33943      1292.4494      3721.1915      3.1885047    
  20800000   300.38671     -215.80344      1290.8392      3761.2229      15.724556    
  20805000   300.62121     -210.15349      1290.2257      3768.3564      11.735301    
  20810000   299.41352     -197.52047      1313.3883      3793.3523      12.41698     
  20815000   298.21207     -192.19451      1263.8821      3738.4282      10.813295    
  20820000   304.95755     -200.79152      1296.3314      3822.6015      9.7449459    
  20825000   296.07044     -196.70555      1305.262       3756.1457      6.8082359    
  20830000   306.79249     -178.33061      1273.5947      3838.7346      11.240795    
  20835000   298.76822     -209.22396      1276.1066      3738.5965      10.279253    
  20840000   292.80593     -216.02168      1264.4305      3666.8054      8.5875682    
  20845000   299.31904     -187.60649      1278.1097      3767.1428      4.9297901    
  20850000   298.06696     -209.82105      1232.7202      3688.3421      0.14150634   
  20855000   302.57624     -201.82195      1279.9865      3783.9315      8.9373941    
  20860000   301.54372     -196.54951      1301.288       3801.2721      6.1582446    
  20865000   297.92259     -208.31871      1269.0226      3724.8558      7.3665624    
  20870000   301.08145     -188.16284      1277.1071      3781.3441      11.558709    
  20875000   300.92993     -220.8601       1270.6461      3740.8309      5.2088762    
  20880000   290.98803     -219.61732      1293.681       3676.2038      6.9776013    
  20885000   303.46622     -203.28825      1269.6425      3780.0797      4.0276937    
  20890000   300.15826     -214.81938      1297.6888      3767.0137      6.5776112    
  20895000   304.99572     -212.82372      1316.6794      3831.2586      11.658543    
  20900000   299.78953     -195.23247      1247.7266      3733.3411      1.1816376    
  20905000   302.5341      -214.46695      1311.9499      3802.873       2.5372102    
  20910000   303.25157     -199.00424      1282.2603      3795.062      -0.28590189   
  20915000   307.53739     -224.68504      1301.1901      3826.6367      0.30469996   
  20920000   301.9335      -203.58887      1343.5854      3840.0157      7.8246346    
  20925000   293.67639     -211.24001      1287.58        3702.5205      2.4687061    
  20930000   295.94866     -215.75246      1280.1578      3710.9055      7.5899361    
  20935000   298.76496     -225.7441       1250.1479      3696.0886      0.28658414   
  20940000   302.83347     -214.21945      1318.0589      3811.9066     -1.815809     
  20945000   300.65027     -200.96273      1288.408       3775.9894      5.2351978    
  20950000   296.16289     -208.33537      1243.7272      3683.8078      13.165432    
  20955000   296.13711     -224.48202      1337.1625      3760.8659      7.066725     
  20960000   300.19068     -215.58282      1282.0004      3750.8517      9.6522288    
  20965000   299.09088     -210.47822      1265.4866      3729.6076      11.095315    
  20970000   297.18601     -213.85179      1317.304       3761.0174      6.971399     
  20975000   296.68135     -213.31911      1269.2874      3709.0205      4.880396     
  20980000   295.00767     -213.01584      1290.826       3715.8956      7.6505919    
  20985000   296.59513     -200.60164      1255.4565      3707.136       9.8903908    
  20990000   294.39058     -202.87978      1320.7202      3750.4077      9.2270002    
  20995000   300.25885     -196.59781      1236.5561      3725.0021      10.301848    
  21000000   306.25999     -202.30296      1290.6316      3827.0372      9.3801926    
  21005000   298.47759     -188.30138      1288.6457      3769.4593      4.4063662    
  21010000   298.70317     -196.66671      1317.2519      3791.7175      0.06716772   
  21015000   299.89824     -210.55362      1258.9504      3730.2159      13.325268    
  21020000   297.97124     -210.6206       1270.9435      3724.9099      11.245334    
  21025000   296.74047     -215.66541      1332.022       3769.9375      9.8087743    
  21030000   305.15783     -191.26423      1292.4597      3830.048       13.665092    
  21035000   297.74177     -221.06998      1300.3103      3741.7753      10.955797    
  21040000   301.58611     -214.69081      1304.1788      3786.4008      7.4059215    
  21045000   305.92738     -211.64602      1257.3277      3781.4159      2.5676618    
  21050000   297.12205     -208.258        1312.2198      3760.955       4.88942      
  21055000   294.44008     -197.05308      1257.2455      3693.2023      7.4278146    
  21060000   297.40125     -222.46611      1260.307       3697.3309      8.017777     
  21065000   307.36257     -196.48478      1260.7033      3812.7868      1.1923696    
  21070000   295.47611     -204.2887       1268.179       3706.1647      11.888225    
  21075000   291.75816     -212.81097      1283.2642      3679.4802      3.9495336    
  21080000   310.7529      -203.83707      1248.1805      3823.2295      10.092092    
  21085000   308.55665     -196.27879      1257.574       3820.5416      6.0864736    
  21090000   304.34352     -202.33618      1309.206       3828.4405      4.4841117    
  21095000   304.89439     -195.91347      1243.3626      3773.9459      7.2159059    
  21100000   300.45142     -201.83988      1312.082       3797.008       1.3489438    
  21105000   300.03095     -201.3066       1275.9327      3757.6319      6.5078426    
  21110000   294.80731     -204.51282      1289.8825      3721.6635      9.0632311    
  21115000   306.57549     -198.60536      1283.6758      3826.6004      8.8933721    
  21120000   297.74624     -220.04302      1311.0947      3753.6266      1.6510391    
  21125000   302.64043     -204.30909      1288.9215      3790.9533      7.0092279    
  21130000   295.91586     -197.56811      1300.7853      3749.4241      1.8145386    
  21135000   300.8458      -204.2245       1258.886       3744.954       13.276889    
  21140000   295.72161     -189.22615      1309.3025      3764.5461      2.4867083    
  21145000   298.23408     -216.77003      1288.7347      3738.9021      3.3791154    
  21150000   297.08772     -221.22746      1301.8321      3737.2908      12.626403    
  21155000   298.97377     -211.76406      1283.476       3745.264       4.8371226    
  21160000   301.43745     -215.18859      1290.8204      3771.2151      7.0990679    
  21165000   297.73451     -206.26963      1294.7491      3750.9495      13.546249    
  21170000   296.02827     -206.72742      1279.101       3719.5857      9.7340715    
  21175000   301.17619     -201.18935      1254.3515      3746.4091      0.47953259   
  21180000   303.17164     -208.50612      1289.2257      3791.8108      3.6307046    
  21185000   303.63619     -192.77423      1311.7649      3834.2361      2.7010237    
  21190000   305.97402     -199.99124      1337.6674      3873.8275      5.3039886    
  21195000   302.79227     -211.24805      1334.2764      3830.7271      9.4001372    
  21200000   300.64123     -215.28917      1267.7682      3740.9422      9.2200708    
  21205000   305.24452     -213.14568      1262.0981      3778.5802      10.434196    
  21210000   297.3734      -216.23748      1251.2245      3694.2279      6.1217527    
  21215000   299.82834     -220.85197      1224.3657      3684.7077      13.646356    
  21220000   311.14507     -192.76649      1267.4656      3857.0922      4.3937408    
  21225000   307.23464     -213.45471      1313.0289      3846.9985      1.2404728    
  21230000   297.46325     -203.75748      1286.2387      3742.5256      3.9130284    
  21235000   297.84622     -224.4732       1313.5491      3752.5449      19.854908    
  21240000   305.72444     -214.48221      1249.9081      3769.3454      6.8594734    
  21245000   304.54726     -207.58439      1301.0417      3816.8499      7.4027471    
  21250000   294.36353     -220.98726      1237.8465      3649.1846      11.861982    
  21255000   301.89629     -214.58107      1271.4712      3756.5766      16.652868    
  21260000   291.50411     -191.00805      1273.3345      3689.0816      9.4418831    
  21265000   299.5486      -210.66542      1272.4918      3740.5188      4.7712955    
  21270000   301.62393     -217.96587      1261.5425      3740.8276      6.3798021    
  21275000   304.10867     -205.11332      1245.9636      3760.3208      8.1912205    
  21280000   305.52014     -210.03296      1224.6605      3746.7201      13.922556    
  21285000   288.2031      -207.64325      1282.751       3652.3438      3.3102447    
  21290000   297.95682     -205.56273      1270.849       3729.7443      9.5113434    
  21295000   298.4956      -200.49165      1292.3427      3761.1272     -1.8241489    
  21300000   309.47217     -218.47328      1284.913       3833.873       8.7988978    
  21305000   298.26687     -198.29928      1315.2497      3784.1811      1.8736228    
  21310000   297.02222     -192.9776       1288.8004      3751.9232      9.1147843    
  21315000   308.2091      -210.97425      1253.3747      3798.5388      11.715325    
  21320000   296.25178     -198.32238      1297.488       3748.3765      8.5916468    
  21325000   301.34212     -194.33027      1329.5588      3829.9594      5.2165814    
  21330000   300.59145     -219.72735      1282.3283      3750.619       9.1309058    
  21335000   302.82667     -223.48973      1334.3126      3818.8292      9.929445     
  21340000   290.77001     -230.66696      1274.67        3644.1936      10.431933    
  21345000   301.01718     -205.39298      1320.3688      3806.8009      4.3043763    
  21350000   298.99424     -205.31345      1298.5928      3767.0144     -0.78277944   
  21355000   299.36829     -206.47229      1265.1464      3735.7541      3.788734     
  21360000   299.11441     -209.19239      1305.1381      3770.7555      5.1113901    
  21365000   295.64188     -231.12648      1252.6379      3665.2683      7.5513414    
  21370000   303.23884     -208.89626      1296.0755      3798.8714      5.1061777    
  21375000   299.10632     -203.18117      1356.1838      3827.74        11.226731    
  21380000   290.14173     -191.744        1281.213       3684.0411      6.6411954    
  21385000   301.78601     -212.9898       1276.822       3762.5326      5.7566884    
  21390000   295.8848      -203.95876      1302.5875      3744.5579      13.073545    
  21395000   298.76874     -198.93246      1262.9107      3735.6968      13.187246    
  21400000   298.43388     -192.78157      1282.9883      3758.9309      6.9108937    
  21405000   304.18155     -204.41257      1265.5705      3781.2802      7.3458379    
  21410000   295.87927     -219.09622      1255.6843      3682.4678     -0.31332702   
  21415000   303.72654     -199.00394      1299.8013      3816.8508      5.3131683    
  21420000   303.19848     -225.35079      1243.1439      3729.1244      10.956255    
  21425000   292.98741     -187.31704      1274.4455      3707.1479      4.504795     
  21430000   301.62616     -210.98628      1262.5853      3748.87        7.8843371    
  21435000   294.16871     -220.67876      1281.1661      3691.0705      5.8134707    
  21440000   299.54137     -214.42665      1281.479       3745.6801      5.4071485    
  21445000   301.64662     -197.39013      1262.617       3762.6806      3.8530311    
  21450000   295.42993     -195.92887      1253.7279      3699.6605      7.9248677    
  21455000   305.80689     -180.86828      1291.2643      3845.0528      8.3967506    
  21460000   287.31805     -212.32593      1233.5053      3590.501       3.1531007    
  21465000   298.11907     -203.80966      1252.8533      3714.9526      9.5488163    
  21470000   299.25647     -208.25329      1327.2575      3795.0843      9.2492949    
  21475000   296.99428     -208.97707      1299.8399      3746.7134      8.0162897    
  21480000   299.06571     -208.61509      1278.5275      3744.2866      11.597611    
  21485000   303.30973     -196.93918      1309.191       3824.5779      9.2407875    
  21490000   294.1705      -216.29645      1256.8702      3671.1729      6.7603119    
  21495000   288.7953      -222.47356      1251.8927      3611.9509      4.9273911    
  21500000   300.7579      -214.49728      1304.3197      3779.3289      10.296593    
  21505000   292.0168      -208.8477       1312.7769      3715.269       6.294235     
  21510000   292.6601      -204.7711       1292.6912      3705.0126      4.6329735    
  21515000   294.51405     -203.35535      1319.8031      3750.1191      4.2942976    
  21520000   302.94915     -200.57228      1293.2977      3801.827       11.544904    
  21525000   301.36601     -193.34071      1265.5384      3767.1422      3.3220772    
  21530000   296.20572     -182.4521       1270.1286      3736.4755      10.059895    
  21535000   312.48955     -206.43599      1235.9155      3823.8954      0.66431812   
  21540000   295.69188     -216.16779      1319.3331      3747.3693      6.6446706    
  21545000   299.79392     -216.80512      1280.9178      3744.9989      6.7774663    
  21550000   299.88396     -214.78228      1235.218       3702.127       1.9972924    
  21555000   298.47168     -219.59954      1300.6315      3750.0941      0.69606018   
  21560000   301.98389     -216.66099      1259.7873      3743.5962      9.0997602    
  21565000   304.54394     -219.3701       1233.9399      3737.9327      7.9621717    
  21570000   294.98846     -211.13774      1285.6634      3712.4393      4.6432598    
  21575000   305.29486     -202.68872      1234.5098      3761.8991      16.464117    
  21580000   290.22614     -208.91719      1290.3905      3676.8003      3.3670948    
  21585000   301.73263     -221.16794      1288.1033      3765.1583      4.4866644    
  21590000   298.73119     -200.06856      1283.5734      3754.8876      13.472215    
  21595000   294.94553     -214.31207      1288.854       3712.0717      6.7478098    
  21600000   303.97072     -197.65596      1299.9776      3820.5586      4.1737021    
  21605000   300.12918     -215.85635      1241.5329      3709.5608      6.6352356    
  21610000   303.99101     -210.81195      1267.8787      3775.4851      3.9803443    
  21615000   297.28476     -217.91952      1247.2235      3687.7521      9.3164235    
  21620000   301.01489     -206.45418      1275.9344      3761.2849      6.6473692    
  21625000   294.82656     -202.01656      1318.4145      3752.8638      7.6937817    
  21630000   303.56772     -198.69453      1256.0938      3772.0324      7.5287116    
  21635000   302.66274     -212.86439      1250.4313      3744.1073      8.7749653    
  21640000   302.70811     -211.63002      1264.7374      3760.0536      2.4705062    
  21645000   302.2926      -209.85269      1260.8864      3754.2642      3.6698951    
  21650000   289.3918      -209.17386      1308.3072      3686.9993      13.132945    
  21655000   309.54809     -211.01658      1267.8462      3824.9418      15.812906    
  21660000   303.22648     -193.48342      1281.2554      3799.3536      8.7542185    
  21665000   296.72477     -224.23577      1259.5676      3688.7723      1.8868234    
  21670000   289.48935     -201.27883      1286.2752      3673.7346      10.215529    
  21675000   292.64011     -213.6975       1230.9918      3634.2081      7.2257234    
  21680000   303.89649     -211.74323      1314.9706      3820.8005      12.051106    
  21685000   301.58586     -205.94081      1305.3323      3796.302       2.7916739    
  21690000   298.57332     -208.43816      1328.6255      3790.1583      5.3030696    
  21695000   302.22915     -205.98916      1287.8189      3784.4927      6.9369342    
  21700000   299.4944      -208.10631      1269.0229      3739.1243      5.8466142    
  21705000   301.3464      -207.52987      1271.9336      3759.1728      5.2021042    
  21710000   293.24655     -216.12818      1277.4926      3683.7012      13.523647    
  21715000   305.54796     -217.6278       1270.2472      3784.9607      9.8691308    
  21720000   299.67362     -210.0887       1250.3652      3720.087       10.298257    
  21725000   293.62766     -215.20973      1308.202       3718.7371      8.4795665    
  21730000   293.14089     -201.10152      1271.6988      3691.9892      3.4941941    
  21735000   297.52629     -203.01707      1245.2153      3702.8063      10.92867     
  21740000   300.22488     -214.88677      1274.4207      3744.2739      0.092681536  
  21745000   296.83343     -199.47384      1270.3655      3725.3039      4.4672565    
  21750000   295.59628     -192.17401      1302.2986      3753.4737      15.852495    
  21755000   303.67604     -225.62931      1277.7929      3767.7655      14.257177    
  21760000   297.27582     -192.39265      1316.8496      3782.8252      4.453238     
  21765000   299.48462     -217.07111      1306.4105      3767.4597      10.020842    
  21770000   299.97114     -214.7142       1270.3931      3738.1499      3.057315     
  21775000   301.33697     -209.5036       1284.6192      3769.8004      7.7370996    
  21780000   304.44775     -197.34498      1273.9824      3799.1402      12.217251    
  21785000   295.70936     -188.95047      1293.9232      3749.333      -1.1490245    
  21790000   298.98277     -201.77906      1304.1032      3775.9567      4.6660853    
  21795000   292.56311     -208.42366      1257.4631      3665.2646      9.3401419    
  21800000   302.17772     -211.31847      1268.0933      3758.978       15.870348    
  21805000   289.52124     -208.20996      1291.4871      3672.3006      10.545633    
  21810000   310.75814     -212.03198      1250.1674      3817.0684      9.7215639    
  21815000   303.65438     -212.36745      1255.6233      3758.6639      6.3475803    
  21820000   298.1559      -220.35091      1242.0451      3687.9325      8.3670403    
  21825000   295.52291     -217.40807      1330.4054      3755.6903      2.3928567    
  21830000   296.21605     -194.02078      1270.6392      3725.5098      3.3894488    
  21835000   303.64378     -198.44253      1243.628       3760.4988      5.1268449    
  21840000   310.72484     -226.88821      1276.741       3828.488       6.4299084    
  21845000   299.43168     -200.71354      1349.123       3826.0564      1.1539394    
  21850000   297.38874     -199.24931      1273.0735      3733.2022      6.5602513    
  21855000   295.36164     -206.31511      1246.6378      3681.5736      3.1417816    
  21860000   302.84011     -207.85992      1292.7006      3792.9672      10.923603    
  21865000   301.02024     -227.94536      1271.6815      3735.5886      9.8354331    
  21870000   295.42789     -203.76927      1267.3143      3705.3883      5.7557988    
  21875000   299.52412     -213.60282      1279.9376      3744.8084      4.466861     
  21880000   306.60279     -213.19827      1312.1034      3840.6791      11.475759    
  21885000   301.05373     -208.70584      1296.308       3779.7541      5.6188162    
  21890000   307.68257     -217.19855      1331.5793      3865.8106      6.8333843    
  21895000   300.31818     -213.36093      1267.14        3739.3534      8.5542623    
  21900000   299.68591     -216.86408      1268.4585      3731.5147      8.0118413    
  21905000   296.99209     -219.20649      1277.3918      3714.0163      11.598112    
  21910000   302.07756     -233.93163      1280.3904      3747.7662      8.2943037    
  21915000   301.90878     -191.16229      1274.6355      3783.2714      0.84840507   
  21920000   303.1912      -208.03535      1294.3         3797.5308      15.155164    
  21925000   305.13159     -196.42619      1269.7512      3801.943       10.295411    
  21930000   297.03768     -211.02421      1291.9873      3737.2018      6.9851969    
  21935000   298.85795     -218.60554      1319.8321      3773.7429      2.1812657    
  21940000   299.96281     -217.28704      1365.5194      3830.6289      4.2666446    
  21945000   299.62717     -199.84402      1288.0994      3767.6504      4.1875772    
  21950000   303.86643     -190.49615      1305.7157      3832.5239      7.8591883    
  21955000   298.89097     -218.51659      1265.7933      3720.0884     -3.0580289    
  21960000   299.83158     -203.3159       1270.1579      3748.065       2.3393328    
  21965000   305.73788     -205.87041      1257.1158      3785.2851      3.9435825    
  21970000   299.7912      -208.34657      1298.7616      3771.2769      5.6064401    
  21975000   303.73488     -202.9087       1292.7618      3805.9811      9.7141801    
  21980000   292.49389     -213.39722      1280.0729      3682.2818      13.176477    
  21985000   303.65282     -204.46505      1274.6823      3785.6114      10.982919    
  21990000   292.60169     -201.84131      1330.0849      3744.8138      6.8950074    
  21995000   301.73929     -203.6657       1275.8662      3770.483       6.3287717    
  22000000   299.34042     -216.91029      1238.3155      3698.236       13.604327    
  22005000   302.58679     -217.41354      1277.3611      3765.8088      9.4059939    
  22010000   289.14444     -208.27022      1289.859       3667.2427      6.5132067    
  22015000   294.59204     -205.27526      1238.6752      3667.7687      9.6310994    
  22020000   298.43465     -204.90822      1270.4885      3734.3113      10.457289    
  22025000   298.81431     -216.38598      1337.1757      3792.9158      5.8735431    
  22030000   299.65668     -213.08504      1297.9596      3764.5335      6.0239716    
  22035000   298.6822      -201.50331      1272.479       3741.9204      13.121351    
  22040000   302.25428     -202.25557      1281.7745      3782.4067      9.9074405    
  22045000   292.76369     -213.64466      1319.8112      3724.1854      7.6140807    
  22050000   301.16292     -208.24099      1265.6188      3750.5062      7.6833461    
  22055000   304.14172     -213.57594      1259.0182      3765.2083      13.932546    
  22060000   302.18596     -200.67922      1260.5657      3762.1633      6.7192178    
  22065000   300.37495     -197.41576      1285.8425      3774.5088      12.113577    
  22070000   306.79202     -212.39177      1262.0368      3793.1112      5.9515443    
  22075000   300.39836     -194.18757      1300.8603      3792.9641      9.3336625    
  22080000   290.58635     -211.08104      1294.9575      3682.4246      0.91576642   
  22085000   305.71948     -210.57293      1288.5619      3811.8641      8.0502493    
  22090000   301.21558     -216.87899      1277.6709      3754.3912      7.2267768    
  22095000   299.97989     -216.36681      1245.089       3711.2715      0.33027827   
  22100000   302.0348      -225.80875      1281.9514      3757.0678      10.040763    
  22105000   294.74384     -207.88798      1291.7847      3719.623       2.1268574    
  22110000   297.67763     -194.60119      1236.3822      3703.7425      9.4064314    
  22115000   294.78323     -228.26349      1268.2876      3676.1025      9.5147691    
  22120000   299.32619     -199.02412      1312.4375      3790.1169      5.7481288    
  22125000   300.51989     -205.64851      1313.2284      3794.958       8.2720025    
  22130000   296.44646     -210.77556      1292.0419      3732.2181      1.1108522    
  22135000   295.98465     -206.46797      1278.4344      3718.7884      8.4677063    
  22140000   299.58628     -210.09382      1265.8003      3734.7359      8.2870382    
  22145000   294.30315     -218.27237      1236.7858      3650.2988      11.397168    
  22150000   309.71762     -201.01339      1225.8686      3794.4834      9.8217954    
  22155000   300.70843     -206.19474      1260.3058      3743.1752      12.381711    
  22160000   297.67967     -196.64666      1273.5532      3738.8863      3.9068162    
  22165000   298.69809     -209.69372      1264.4572      3725.8502      12.764123    
  22170000   292.73969     -218.05198      1282.5013      3682.2535      8.5809929    
  22175000   295.57011     -194.52862      1300.9684      3749.5549      11.517146    
  22180000   304.81007     -190.9767       1224.8338      3759.5999      17.100472    
  22185000   294.87829     -201.91925      1290.9896      3725.9989      6.7383402    
  22190000   297.07981     -209.13633      1239.8749      3687.354       9.335434     
  22195000   301.95935     -198.13474      1318.1606      3820.2763      4.5800092    
  22200000   303.19655     -202.96926      1271.1227      3779.4674     -1.6008059    
  22205000   297.15564     -219.84294      1307.4559      3744.9065      6.0513461    
  22210000   298.14389     -216.41872      1250.8432      3700.5554      5.0274362    
  22215000   294.8243      -192.54298      1278.9309      3722.8336      2.3297614    
  22220000   295.43391     -210.22142      1290.8603      3722.5359      11.68633     
  22225000   299.61947     -212.10335      1259.4158      3726.6386      13.140559    
  22230000   294.30943     -233.62784      1270.7496      3668.9633      7.8219373    
  22235000   303.71181     -211.27784      1255.8525      3760.4963      3.862583     
  22240000   302.87526     -203.77507      1251.5833      3756.2491      6.8102959    
  22245000   295.08302     -208.9561       1290.8463      3720.6495      4.4651197    
  22250000   300.87688     -202.0642       1291.0808      3779.5871      13.716781    
  22255000   298.82387     -206.21801      1270.1654      3736.159       7.3765679    
  22260000   304.00513     -208.15446      1277.1373      3787.5275      10.424273    
  22265000   294.71129     -222.98914      1277.4182      3689.8642     -0.20855625   
  22270000   295.19655     -215.38449      1317.8089      3742.199       10.024198    
  22275000   303.00748     -209.26415      1289.2564      3789.6155      14.995282    
  22280000   304.07737     -190.56845      1271.3584      3799.9806      7.8303135    
  22285000   300.35795     -199.5009       1282.926       3769.3551      4.0994639    
  22290000   296.57918     -216.31241      1258.7933      3694.6195      3.6718551    
  22295000   289.73662     -204.7319       1295.3552      3681.5727      7.9518099    
  22300000   303.49654     -217.6194       1296.9217      3793.2989      12.682606    
  22305000   309.65251     -211.84934      1332.3561      3889.5526      9.8589907    
  22310000   302.50717     -196.03194      1308.1727      3817.29        6.4412076    
  22315000   301.63637     -196.06017      1263.5551      3764.8571      7.008838     
  22320000   297.76704     -200.31903      1263.8858      3726.3277      8.5985725    
  22325000   295.57866     -207.00236      1289.6961      3725.8853      3.5193969    
  22330000   295.53799     -203.28272      1317.2184      3756.7635      9.5260715    
  22335000   304.75604     -220.07264      1277.0459      3782.2329      0.88271876   
  22340000   299.57324     -226.69659      1261.356       3713.5722     -1.8050285    
  22345000   306.64714     -213.19337      1284.9279      3813.9052      14.526021    
  22350000   304.68057     -215.9332       1317.159       3825.8105      11.675603    
  22355000   303.78147     -203.4582       1220.8004      3733.8867      1.7512688    
  22360000   299.95091     -217.04873      1227.6131      3692.8545      6.0063568    
  22365000   292.21004     -202.03378      1266.684       3677.7181      2.4816526    
  22370000   290.00859     -205.951        1245.8606      3633.2912      14.960819    
  22375000   298.69295     -207.02558      1306.05        3770.0652      8.2432184    
  22380000   300.33323     -207.28893      1240.4383      3718.8583      8.8019294    
  22385000   298.48259     -188.50218      1302.9704      3783.6279      6.6288485    
  22390000   294.71779     -213.17191      1289.7395      3712.0609      6.0342674    
  22395000   299.11061     -197.87876      1235.0038      3711.9008      7.1190746    
  22400000   294.45645     -226.99194      1310.2275      3716.3918     -0.43963443   
  22405000   305.6566      -218.31671      1287.5859      3802.582       7.0513867    
  22410000   302.56        -203.99168      1275.486       3777.116       8.8312205    
  22415000   296.62079     -210.10237      1294.3902      3736.7986      0.082406313  
  22420000   294.94098     -225.45754      1326.291       3738.3226      7.5800488    
  22425000   297.69611     -220.56658      1254.6972      3696.2573      3.4943241    
  22430000   298.43646     -215.84463      1266.1758      3719.0783     -1.4822839    
  22435000   298.28765     -218.92842      1252.8631      3701.3511      11.628542    
  22440000   297.94548     -218.28625      1230.3734      3676.4438      2.9135725    
  22445000   304.74822     -223.46633      1298.242       3799.9653      8.5199049    
  22450000   296.22099     -201.56258      1310.8236      3758.1965      8.9301965    
  22455000   290.21486     -192.07713      1269.1615      3672.3105      4.6463338    
  22460000   302.5165      -215.22523      1318.3892      3808.3966      14.825753    
  22465000   306.97089     -234.12742      1261.9833      3772.9216      3.1412387    
  22470000   303.37125     -217.49805      1295.1131      3790.4913      10.185357    
  22475000   296.97275     -209.51329      1273.5193      3719.6641      3.0554088    
  22480000   299.45275     -194.4119       1308.5386      3791.962       9.5986144    
  22485000   299.3664      -220.40087      1347.2146      3803.8768      6.9056977    
  22490000   303.3939      -208.84713      1240.8933      3745.125       9.0715267    
  22495000   300.44492     -202.47808      1231.5919      3715.8216      9.4004028    
  22500000   302.54081     -215.3303       1316.2302      3806.35        15.460771    
  22505000   299.3438      -211.21359      1281.3067      3746.9542      7.3968356    
  22510000   299.48031     -200.19084      1218.1701      3696.061       10.285978    
  22515000   301.95059     -209.60062      1252.8562      3743.4277      7.4689624    
  22520000   297.86811     -209.69408      1256.8677      3710.8383      16.547426    
  22525000   301.58463     -211.43034      1245.8525      3731.3216      4.9173922    
  22530000   301.01338     -225.78018      1254.1909      3720.2019      4.7612248    
  22535000   297.22143     -220.12311      1257.9753      3695.734       1.8121626    
  22540000   300.88999     -213.40252      1300.5034      3777.7886      15.303615    
  22545000   301.03526     -226.93016      1278.8875      3743.9441      9.2678846    
  22550000   292.92742     -198.18639      1255.2932      3676.5898      8.5490818    
  22555000   304.18515     -215.24505      1274.0823      3778.9917      4.1230853    
  22560000   294.14468     -213.18243      1247.5318      3664.7176      9.3389553    
  22565000   301.35567     -211.67141      1300.5311      3783.7117      4.6952023    
  22570000   298.1786      -204.58161      1279.41        3741.2697      6.0285093    
  22575000   298.84835     -193.06778      1278.5509      3757.9136      4.0611682    
  22580000   300.65864     -206.9827       1252.3077      3733.9438      9.8577882    
  22585000   297.11036     -220.89841      1244.6287      3680.6189      9.3029311    
  22590000   298.43698     -213.52847      1304.6094      3759.8327      7.9661042    
  22595000   296.19732     -210.66397      1251.5431      3689.603       7.7992428    
  22600000   299.77285     -202.57058      1286.8044      3764.9316      7.6756532    
  22605000   297.38972     -207.52157      1285.8305      3737.6957      5.7486359    
  22610000   293.83041     -210.41242      1259.4169      3676.5624      5.9173066    
  22615000   302.41768     -211.04576      1267.0751      3760.3783      1.6265296    
  22620000   296.29982     -235.89699      1257.0285      3670.772       5.9496402    
  22625000   301.52321     -218.92127      1291.2087      3768.6377      9.0061       
  22630000   287.50714     -217.88702      1305.1027      3658.2282      4.589851     
  22635000   299.09538     -206.21968      1286.7105      3755.1303      5.7262636    
  22640000   304.7616      -218.20426      1363.6806      3870.7857      2.321842     
  22645000   303.38215     -214.72047      1279.9255      3778.1787      7.9081173    
  22650000   299.09945     -210.07586      1268.3787      3732.9788      6.5606695    
  22655000   306.88342     -217.61913      1241.2564      3767.9208      9.2715907    
  22660000   301.50471     -219.55129      1278.4409      3755.0744      9.3160434    
  22665000   304.28877     -216.74658      1268.1787      3772.5133      5.8532741    
  22670000   305.0837      -213.33724      1302.1768      3817.0292      6.3181757    
  22675000   302.96828     -212.57381      1315.0752      3811.774       6.1284013    
  22680000   307.39539     -219.36905      1267.5434      3797.0361      9.975922     
  22685000   292.39518     -206.50827      1268.4181      3676.6333      5.1809849    
  22690000   300.62364     -200.35643      1242.2034      3730.1529      6.6571264    
  22695000   299.07651     -223.73969      1255.3432      3706.0742      7.1745056    
  22700000   294.49689     -200.01189      1263.3242      3696.8302      3.0518264    
  22705000   301.76951     -199.00908      1279.9669      3779.5106      8.5176275    
  22710000   298.5068      -206.00178      1269.6731      3733.0475      11.327383    
  22715000   302.75809     -213.18873      1256.3877      3750.592       12.867313    
  22720000   294.99908     -191.01267      1265.0986      3712.0946      4.9304649    
  22725000   296.10567     -185.73222      1233.9281      3696.1001      7.1213214    
  22730000   298.2885      -205.70376      1292.5257      3754.2461      5.3371583    
  22735000   294.79174     -217.29477      1293.145       3712.0047      5.0834224    
  22740000   301.67946     -204.89054      1355.2833      3848.1402      5.7897476    
  22745000   298.65528     -226.85348      1322.0498      3765.9003      11.145571    
  22750000   292.97409     -219.7759       1276.9031      3677.0275      4.5023747    
  22755000   303.85716     -225.0753       1319.5808      3811.7269      6.5339193    
  22760000   294.63453     -208.8704       1286.7462      3712.6245      8.117636     
  22765000   295.63317     -210.24268      1342.7117      3776.148       5.0553267    
  22770000   301.49543     -211.10791      1263.4258      3748.4197      5.6337049    
  22775000   299.22342     -204.09815      1325.9468      3797.6332      3.5296347    
  22780000   296.62689     -205.02646      1262.241       3709.7798      13.337911    
  22785000   299.36345     -197.95397      1258.0179      3737.1006      10.115816    
  22790000   293.50846     -203.49407      1239.7198      3660.9047      13.168921    
  22795000   298.20616     -207.30604      1268.3112      3727.6929      11.936862    
  22800000   304.60903     -213.48626      1280.555       3791.0137      15.723453    
  22805000   305.13879     -206.35341      1349.5249      3871.8538      3.6955613    
  22810000   300.61513     -210.89911      1331.1037      3808.4344      10.924594    
  22815000   301.42418     -203.8037       1300.4395      3792.1005      0.7149742    
  22820000   302.34115     -205.14745      1294.3038      3792.8209      6.6826942    
  22825000   298.21668     -204.71104      1288.9561      3751.0269      5.0673179    
  22830000   300.01937     -221.23572      1243.079       3704.7456      11.373652    
  22835000   299.33454     -194.61265      1274.8189      3756.9845      15.05242     
  22840000   298.96013     -194.32737      1245.5561      3724.6588      11.330278    
  22845000   289.53513     -212.87939      1266.893       3643.1612      13.017805    
  22850000   307.35568     -193.59238      1267.214       3822.1283      12.941577    
  22855000   301.45929     -197.81718      1263.9756      3761.937       10.701296    
  22860000   301.88856     -191.35788      1260.1912      3768.4507      6.1059362    
  22865000   298.61679     -185.24026      1313.898       3799.0175      9.5319952    
  22870000   294.44635     -191.63625      1332.0648      3773.4945      5.3807678    
  22875000   302.77813     -195.37993      1265.4033      3777.5956      6.8546171    
  22880000   296.11219     -204.33457      1286.7627      3730.3907      3.0142573    
  22885000   296.33477     -205.02947      1287.7578      3732.6813      4.3336779    
  22890000   309.63056     -204.55242      1286.214       3850.5112      10.719698    
  22895000   297.75076     -204.91524      1296.8979      3754.598       8.7982254    
  22900000   301.35174     -196.67246      1289.585       3787.7295      13.319588    
  22905000   298.28015     -201.25572      1309.2983      3775.3919      7.8192447    
  22910000   298.8351      -226.19412      1231.6187      3677.7366      10.431951    
  22915000   296.79032     -209.93471      1297.5304      3741.6224      10.058895    
  22920000   301.98968     -229.14286      1255.6559      3727.0347      10.690585    
  22925000   294.76638     -187.21026      1324.8178      3773.5353      6.542277     
  22930000   297.52131     -204.23179      1316.5191      3772.8509      6.2667309    
  22935000   298.18558     -200.3238       1308.133       3774.3129      3.962098     
  22940000   295.45335     -213.18425      1275.9666      3704.8533      6.7724835    
  22945000   304.69298     -218.96943      1285.6812      3791.4075      10.222025    
  22950000   296.65575     -210.61497      1292.6165      3734.8248      4.76336      
  22955000   301.11854     -186.90349      1234.1806      3740.0087      7.2260467    
  22960000   292.2786      -225.78204      1312.4236      3700.3225      2.5214695    
  22965000   300.98811     -222.57485      1282.5043      3751.4946      12.173465    
  22970000   297.88761     -205.79493      1318.5434      3776.5877      11.389855    
  22975000   306.91552     -207.89823      1296.8313      3833.5037      8.3775709    
  22980000   310.94174     -199.80193      1299.6372      3880.41        12.383506    
  22985000   302.60361     -208.26784      1275.1873      3772.9311      8.0486415    
  22990000   312.07986     -213.76832      1278.5968      3855.5808      9.2468604    
  22995000   297.35017     -203.57736      1253.5478      3709.0036      8.2476233    
  23000000   296.7878      -196.83786      1269.2778      3726.4441      4.4686914    
  23005000   295.43012     -202.57869      1241.5807      3680.8652      12.30768     
  23010000   305.16035     -217.09869      1344.5742      3856.3506      7.6858073    
  23015000   297.18662     -194.2092       1297.2331      3760.5946      10.286221    
  23020000   303.30121     -190.26511      1281.4407      3803.4254      4.2485758    
  23025000   294.92615     -201.4967       1261.1259      3696.9857      5.8609881    
  23030000   300.49005     -198.28343      1300.6683      3789.4961      8.1299488    
  23035000   299.46638     -194.10771      1296.63        3780.4795      12.622063    
  23040000   296.2544      -219.76388      1274.916       3704.3864      6.8390312    
  23045000   301.73554     -197.88167      1334.4016      3834.7688      8.113675     
  23050000   301.0982      -206.61638      1325.8012      3811.7345      3.7703946    
  23055000   304.29954     -202.76912      1302.9321      3821.3403      6.2593512    
  23060000   300.38561     -193.55009      1234.355       3726.9822      2.4294714    
  23065000   297.84925     -203.52161      1295.1892      3755.1636      10.731143    
  23070000   300.11673     -191.71214      1303.314       3795.3748      6.8489624    
  23075000   302.47384     -199.01383      1292.8641      3798.7015     -0.4897816    
  23080000   303.16626     -217.14246      1267.3738      3761.2744      6.8205009    
  23085000   304.29835     -218.69469      1242.9642      3745.4363      7.8640495    
  23090000   293.76223     -223.27086      1262.8983      3666.5757      13.325353    
  23095000   298.73864     -211.30315      1275.2311      3735.3774      5.4908174    
  23100000   301.21883     -209.7804       1276.444       3760.292       10.662848    
  23105000   303.32716     -203.51667      1293.6265      3802.5917      7.5836322    
  23110000   305.93719     -203.75112      1262.8168      3794.8876      15.351266    
  23115000   305.85233     -230.39248      1263.9833      3768.6539      7.9890494    
  23120000   298.79822     -210.79272      1266.4792      3727.6687      10.406448    
  23125000   296.14894     -200.89805      1287.1808      3734.574       9.4983554    
  23130000   299.15431     -184.53495      1273.9001      3764.5317      10.432585    
  23135000   299.23029     -204.74536      1282.5385      3753.6391      3.5387033    
  23140000   296.17512     -213.63961      1221.8761      3656.7618      10.883845    
  23145000   300.33927     -194.13347      1312.672       3804.3014      2.5369156    
  23150000   306.98842     -196.10749      1267.2403      3816.3553      4.8739174    
  23155000   306.56651     -208.06285      1291.8574      3825.2442      9.642721     
  23160000   301.88636     -202.21584      1289.5779      3786.9597      8.2211759    
  23165000   297.66197     -212.20955      1281.5541      3731.166       6.5060863    
  23170000   296.08567     -194.32869      1299.7441      3753.1408      2.8357798    
  23175000   292.88338     -198.70759      1287.8988      3708.2803      11.59859     
  23180000   303.55458     -205.78111      1279.8569      3788.5914      14.555962    
  23185000   296.34717     -224.42408      1308.6393      3734.2792      3.2406381    
  23190000   303.20921     -217.97759      1277.2162      3770.6658      11.4236      
  23195000   298.40936     -178.21915      1272.7175      3763.0032      8.2117636    
  23200000   295.86997     -195.26858      1291.99        3742.518       14.713812    
  23205000   303.94301     -204.07656      1276.8605      3790.7731      14.670235    
  23210000   294.99316     -206.86908      1341.4111      3772.4977      3.1960524    
  23215000   297.4977      -195.04786      1298.7589      3764.0634      8.2310214    
  23220000   299.50082     -213.83951      1295.2042      3759.6299      2.8662468    
  23225000   300.93338     -199.87924      1275.8972      3767.0937      4.8897009    
  23230000   298.56196     -206.89892      1247.053       3710.0236      8.7994458    
  23235000   297.42793     -216.12708      1319.7751      3763.3765      6.4448034    
  23240000   296.00509     -194.9274       1245.8698      3697.9472      7.1525395    
  23245000   303.94604     -213.52666      1311.3843      3815.8738      2.8953263    
  23250000   299.44039     -202.56882      1271.1109      3746.2668      10.624871    
  23255000   307.91402     -228.34733      1260.545       3785.6972      15.734333    
  23260000   301.23637     -230.44609      1310.8176      3774.1568      1.3236698    
  23265000   304.12405     -212.51771      1287.9449      3795.0353      8.8617566    
  23270000   297.6111      -215.63514      1320.2123      3765.9436     -2.5109471    
  23275000   303.91617     -211.37404      1256.9282      3763.3033      8.942932     
  23280000   296.56305     -197.53109      1253.3212      3707.7845      12.56122     
  23285000   301.2491      -201.81235      1242.6018      3734.6885      6.1985781    
  23290000   298.93544     -219.523        1333.4155      3787.1018      0.16122037   
  23295000   303.13623     -196.6745       1236.5027      3750.6028      9.2631528    
  23300000   292.12209     -188.53925      1258.381       3682.1231      8.0120339    
  23305000   302.55357     -209.0631       1316.7902      3813.2913      3.1952595    
  23310000   289.41497     -194.00755      1280.2429      3674.3085      14.260229    
  23315000   301.32692     -202.75648      1247.1937      3739.0322      16.219763    
  23320000   303.79487     -215.91076      1298.6359      3799.3895      8.4901081    
  23325000   296.17619     -200.35632      1294.3176      3742.4962      7.2996285    
  23330000   302.43437     -211.49389      1261.5822      3754.5865      3.3321858    
  23335000   290.94094     -222.14157      1308.9524      3688.5299      2.8440648    
  23340000   298.15357     -206.22048      1281.1645      3741.1615      12.679784    
  23345000   307.75664     -201.50988      1292.5153      3843.0976      7.2834986    
  23350000   299.88489     -218.10153      1266.606       3730.2041      6.0372069    
  23355000   312.1599      -195.79583      1326.9331      3922.6054     -3.279665     
  23360000   304.04364     -206.98247      1234.3037      3746.2103      8.438528     
  23365000   290.43796     -196.52195      1308.7944      3709.4937     -0.92805625   
  23370000   290.88103     -191.79869      1246.4309      3655.8155      2.4686622    
  23375000   303.61847     -200.15016      1248.0691      3763.0059      12.565036    
  23380000   307.28451     -198.83516      1279.1972      3828.2324      11.34074     
  23385000   295.17858     -216.6115       1293.9598      3716.9621      2.1488687    
  23390000   301.93821     -208.7107       1306.9798      3798.3304      9.285273     
  23395000   302.11902     -199.60483      1274.8642      3776.9376      8.8418786    
  23400000   297.80107     -197.93303      1331.0436      3796.1758      0.77635643   
  23405000   301.86851     -198.78067      1280.8368      3781.4942      4.459356     
  23410000   300.70542     -220.99449      1258.0512      3726.0939     -0.38685339   
  23415000   307.32042     -215.5201       1258.1771      3790.8484      12.175955    
  23420000   301.48267     -196.05845      1337.1186      3837.0478      10.414039    
  23425000   294.34683     -192.0412       1284.4985      3724.6332      8.1239633    
  23430000   298.18366     -214.15916      1314.8433      3767.1707      7.3701553    
  23435000   296.89796     -215.24166      1249.7958      3689.5434      7.0444471    
  23440000   299.34229     -203.09198      1330.0651      3803.8206      9.0261187    
  23445000   300.96896     -223.55669      1263.921       3731.7582      2.1915109    
  23450000   300.67891     -209.34041      1243.5751      3723.0348      9.7695429    
  23455000   294.36237     -207.48409      1285.9977      3710.8285      7.8129279    
  23460000   299.05631     -205.2443       1287.6296      3756.6755      16.015405    
  23465000   298.77331     -218.66469      1255.4617      3708.5565      4.1935648    
  23470000   295.43635     -203.98738      1261.7974      3699.729       7.4154065    
  23475000   294.81928     -212.59176      1296.6743      3720.4834      9.3776419    
  23480000   302.84978     -191.38248      1269.7294      3786.5599      12.821593    
  23485000   297.99112     -203.32751      1247.3757      3708.813       19.935901    
  23490000   300.1403      -209.07669      1285.3316      3760.2386      1.9691892    
  23495000   298.50041     -219.5802       1243.4709      3693.2097      8.0416772    
  23500000   294.48553     -213.96999      1270.5892      3690.0355      6.1541323    
  23505000   307.96614     -204.15098      1326.0446      3875.8593      7.6764499    
  23510000   301.04361     -215.89375      1320.1743      3796.342       7.9178043    
  23515000   289.50266     -215.32946      1248.7897      3622.3176      9.3047297    
  23520000   299.17539     -222.62596      1277.1904      3729.9195      5.5564174    
  23525000   306.60776     -220.65679      1252.2128      3773.3745      9.8667055    
  23530000   307.19062     -232.00988      1253.6285      3768.6493      13.746897    
  23535000   295.5603      -225.95286      1321.7865      3738.861       5.9755797    
  23540000   302.28347     -217.07281      1270.7216      3756.7975      7.5563079    
  23545000   299.84108     -206.14708      1267.9476      3743.1085      6.52829      
  23550000   305.75822     -197.2488       1308.2177      3845.1904      8.0309561    
  23555000   300.61827     -222.21947      1269.5158      3735.5542      4.3949731    
  23560000   296.32256     -212.39309      1278.2247      3715.6755      4.0524487    
  23565000   300.81373     -208.07791      1320.8059      3802.7338      7.7495254    
  23570000   294.41666     -212.82158      1252.4535      3672.4323      6.720627     
  23575000   289.53332     -198.56435      1321.5077      3712.0748      2.5155899    
  23580000   289.7218      -175.15924      1248.7793      3664.437       6.9241596    
  23585000   299.27568     -207.67051      1323.3679      3791.9493      1.3724037    
  23590000   301.279       -234.65585      1326.0428      3785.5534      5.6344828    
  23595000   301.68627     -213.93781      1242.554       3726.4246      8.3423468    
  23600000   297.44058     -213.14786      1282.6371      3729.3308      10.984003    
  23605000   291.0585      -206.12003      1257.7459      3654.3962     -1.6668329    
  23610000   292.902       -208.6035       1243.665       3654.3172      8.2792405    
  23615000   291.73027     -204.23197      1256.6782      3661.2238      9.3075525    
  23620000   299.47777     -200.38129      1264.6413      3742.3191      4.698019     
  23625000   308.55139     -218.90628      1244.5983      3784.8912      14.601252    
  23630000   299.12575     -219.08043      1304.2449      3760.0756      6.261253     
  23635000   304.20346     -211.34226      1334.1859      3843.1618      4.4296034    
  23640000   303.03826     -220.36453      1288.9407      3778.4746      5.4813716    
  23645000   295.59795     -216.87861      1326.1512      3752.6366      7.1457661    
  23650000   299.78135     -206.72143      1300.587       3774.6394      2.3673782    
  23655000   297.43186     -204.90502      1239.1876      3694.0462      5.0627378    
  23660000   298.08052     -207.32228      1290.9454      3749.1873      9.3954276    
  23665000   304.18688     -211.94307      1244.1966      3752.4234      4.3899362    
  23670000   293.29681     -212.38806      1253.7304      3664.1285      6.7679387    
  23675000   299.25348     -211.3685       1279.7306      3744.4154      12.025731    
  23680000   312.54672     -204.57782      1236.9442      3827.2936      8.6508832    
  23685000   300.17857     -202.82404      1248.6098      3730.1117      0.17392546   
  23690000   295.91963     -198.98583      1311.097       3758.3518      7.3377265    
  23695000   288.7901      -185.5227       1325.0821      3722.0447      6.4469783    
  23700000   301.55202     -212.99043      1286.9953      3770.6128      7.1313504    
  23705000   292.74576     -191.42303      1252.2074      3678.6429      11.458786    
  23710000   290.10304     -218.60728      1279.7277      3655.3466      12.842516    
  23715000   298.21448     -192.74272      1289.4673      3763.4868      7.4726302    
  23720000   299.67511     -193.48313      1327.8813      3814.2219      10.700578    
  23725000   296.50463     -209.02256      1314.8553      3757.3047      1.3474031    
  23730000   301.07359     -195.64101      1354.5629      3851.2514      8.7568951    
  23735000   300.93188     -217.48999      1277.4221      3750.9944      9.9349303    
  23740000   300.58802     -217.47192      1289.2866      3759.8021      7.0970869    
  23745000   297.60197     -200.43416      1247.9373      3708.7879      6.073746     
  23750000   295.76809     -199.73931      1262.5107      3707.6568      5.8598848    
  23755000   303.2742      -196.41299      1297.1979      3812.7933      8.5583349    
  23760000   301.96909     -190.26614      1312.9939      3823.0653      12.0169      
  23765000   294.70602     -219.5116       1242.6267      3658.503       6.64445      
  23770000   299.55843     -199.69614      1276.0364      3755.1206      7.5704054    
  23775000   307.1013      -198.68408      1293.2886      3840.8365      14.821542    
  23780000   299.00438     -202.53035      1258.371       3729.6664      2.8949951    
  23785000   307.05801     -207.62075      1272.9494      3811.1735      2.243007     
  23790000   291.65688     -215.91439      1284.0389      3676.2458      4.1735601    
  23795000   300.3093      -213.78789      1258.8378      3730.5449      6.15748      
  23800000   306.7168      -200.91348      1275.2036      3817.0836      10.226385    
  23805000   301.1686      -209.36487      1276.204       3760.0183      7.6107189    
  23810000   298.68908     -208.68659      1302.0249      3764.3446      12.467525    
  23815000   301.41758     -212.38597      1302.4082      3785.4278      3.482445     
  23820000   305.72357     -216.36466      1311.0653      3828.6123      6.2973757    
  23825000   303.06374     -221.80671      1313.3903      3801.7099      10.787276    
  23830000   303.63082     -209.33701      1281.1475      3787.0079      9.680086     
  23835000   300.41903     -205.6799       1260.164       3740.9603      1.5274605    
  23840000   299.11719     -200.4372       1249.4162      3723.8136      9.575533     
  23845000   290.50407     -208.19354      1288.281       3677.8998      1.4516521    
  23850000   301.57516     -215.01897      1278.2288      3760.0246      10.141684    
  23855000   296.60731     -198.62056      1289.9128      3743.6823      10.093877    
  23860000   292.0379      -201.41945      1194.3012      3604.4102      5.6326372    
  23865000   307.22717     -214.48848      1300.6061      3833.4751      2.2235593    
  23870000   294.31212     -218.75106      1253.0211      3666.1356      2.0722827    
  23875000   295.95434     -210.02756      1311.8942      3748.4177      5.6453271    
  23880000   305.11403     -206.30863      1257.2902      3779.4424      13.204741    
  23885000   299.72369     -225.78354      1255.0949      3709.5695      6.2492817    
  23890000   293.56378     -198.10168      1258.2544      3685.3263      4.4643524    
  23895000   300.05044     -208.85635      1227.2723      3701.5961      8.5988085    
  23900000   293.79333     -188.97395      1269.0953      3707.3476      2.594844     
  23905000   304.28841     -198.14624      1295.4311      3818.3627      12.408644    
  23910000   297.24775     -207.32402      1253.8194      3704.6126      7.6436422    
  23915000   300.36161     -200.39347      1265.1202      3750.6895      13.757818    
  23920000   302.98243     -213.52538      1321.677       3817.5508      6.9888558    
  23925000   294.94719     -215.30777      1269.91        3692.1469      8.9269964    
  23930000   291.35896     -189.44058      1291.8225      3707.839       13.909574    
  23935000   303.94435     -216.68985      1242.1914      3743.5027      11.220667    
  23940000   296.39484     -201.44221      1282.2266      3731.2745      6.3960591    
  23945000   301.01628     -202.63125      1306.1664      3795.3522      5.6371648    
  23950000   295.21287     -218.58452      1306.3549      3727.6908      2.4992563    
  23955000   299.56099     -219.40971      1283.3803      3742.7738      13.792746    
  23960000   295.87088     -211.81644      1233.6071      3667.5952      7.8542236    
  23965000   302.29695     -208.7659       1248.9226      3743.426       6.0266467    
  23970000   302.03259     -207.5102       1306.2047      3799.5998      11.666998    
  23975000   308.75379     -211.4419       1272.6518      3822.2191      4.9135024    
  23980000   295.70721     -202.34069      1257.3224      3699.3228      6.1173733    
  23985000   303.64758     -202.80414      1252.0864      3764.6295      8.7650125    
  23990000   291.67775     -203.42832      1325.9306      3730.8102      7.7572127    
  23995000   290.98882     -237.82952      1234.7576      3599.0753      13.136982    
  24000000   299.53138     -220.64146      1263.7864      3721.6834      10.555413    
  24005000   292.71768     -214.0392       1248.8139      3652.3821      8.1620591    
  24010000   295.87327     -213.77808      1326.2218      3758.2698      2.5926467    
  24015000   299.0223      -224.48576      1289.0444      3738.5446      0.65440855   
  24020000   296.76815     -203.38593      1240.6704      3691.1129      11.231149    
  24025000   294.00956     -213.88722      1272.49        3687.7627      6.1650033    
  24030000   299.87876     -202.20598      1286.819       3766.2579      3.8288026    
  24035000   307.77859     -198.08975      1243.3534      3797.5522      12.564668    
  24040000   298.11276     -194.58866      1277.426       3748.6898      3.4689594    
  24045000   302.44863     -200.97451      1264.7529      3768.4041      15.419073    
  24050000   307.58033     -196.36702      1314.3839      3868.5325      7.2857149    
  24055000   298.40006     -215.35864      1286.2335      3739.2965      8.2534589    
  24060000   297.25624     -211.51442      1285.2308      3731.9096      5.414808     
  24065000   301.07271     -226.04881      1280.2762      3746.549       2.0234146    
  24070000   299.79788     -207.02514      1257.8179      3731.7144      11.346897    
  24075000   294.43636     -212.80365      1223.5794      3643.7524      6.5026912    
  24080000   304.23182     -209.73531      1285.0717      3795.9082      9.7838129    
  24085000   302.17239     -186.50085      1290.5479      3806.2026      4.815046     
  24090000   292.94961     -208.8016       1318.6712      3729.551       3.5141521    
  24095000   292.67843     -203.4918       1277.5723      3691.337       2.5186239    
  24100000   300.06539     -212.0321       1234.8004      3706.0821      7.4283261    
  24105000   301.15719     -214.8072       1269.3666      3747.6365      7.1239751    
  24110000   302.38774     -213.23973      1238.0155      3728.8571      12.44645     
  24115000   302.25592     -225.11461      1267.3512      3745.1391      2.3675371    
  24120000   300.38681     -218.0478       1268.0721      3736.2124      5.7747362    
  24125000   298.31264     -212.96213      1293.4812      3748.159       9.6982394    
  24130000   305.78331     -209.94772      1293.8036      3818.3018      5.6180335    
  24135000   293.27026     -218.42274      1264.9016      3669.0277      10.138098    
  24140000   301.86207     -225.87795      1337.315       3810.8175      1.3399826    
  24145000   298.06106     -212.73165      1294.8853      3747.5439      9.4011931    
  24150000   296.42672     -229.40428      1268.2936      3689.6646      10.705587    
  24155000   297.28083     -227.55724      1301.7613      3732.6172     -0.0062417226 
  24160000   298.1483      -222.83525      1265.3733      3708.7083      2.7885523    
  24165000   292.17527     -200.9308       1276.246       3688.0722      2.4563325    
  24170000   303.6958      -201.91268      1237.5918      3751.4576      12.431415    
  24175000   304.32609     -185.25397      1309.3626      3845.5234      7.4453657    
  24180000   286.50425     -210.91316      1240.344       3591.4751      10.906858    
  24185000   297.1447      -214.97318      1280.252       3722.4745      10.534444    
  24190000   299.70479     -220.12724      1263.0461      3723.008       7.0699623    
  24195000   304.69541     -192.99182      1276.412       3808.1377      5.1266211    
  24200000   304.82127     -205.51613      1233.986       3754.3128     -0.74175864   
  24205000   308.45542     -204.44921      1231.9526      3785.8444      5.7815258    
  24210000   297.02135     -232.31666      1342.5394      3766.3154      6.7327209    
  24215000   305.13085     -214.65945      1288.5356      3802.4874      5.6565437    
  24220000   300.60084     -218.19588      1246.849       3716.7551      14.836445    
  24225000   302.63116     -208.74398      1258.2675      3755.7816      4.5435376    
  24230000   300.02278     -211.84308      1257.6623      3728.752       4.67442      
  24235000   302.09179     -203.58337      1325.3059      3823.1572      14.787485    
  24240000   296.87234     -198.85725      1285.167       3741.0699      8.2821934    
  24245000   293.69851     -207.30486      1276.0108      3695.0844      1.6332913    
  24250000   298.59506     -223.21407      1313.8793      3760.8307      5.8163718    
  24255000   298.93371     -203.01219      1283.8138      3753.9954      2.7717212    
  24260000   293.51348     -197.44193      1266.5331      3693.8149      4.8791218    
  24265000   302.02202     -211.87423      1305.4171      3794.3537      4.3943428    
  24270000   295.64253     -224.95656      1255.1804      3673.9865      7.7523228    
  24275000   298.13558     -194.98054      1318.613       3789.689       5.5442055    
  24280000   296.23632     -204.06243      1290.626       3735.6362      5.590924     
  24285000   303.01376     -199.75216      1294.8739      3804.8011      1.8607161    
  24290000   297.84248     -217.17524      1225.2946      3671.5549      12.172292    
  24295000   295.83522     -229.45885      1312.1125      3728.1394      6.8398377    
  24300000   298.50423     -221.25955      1284.5307      3732.6245      7.6859836    
  24305000   298.60245     -210.69778      1295.9385      3755.4723     -3.7342038    
  24310000   299.44808     -215.51552      1259.9682      3722.2463      7.2968626    
  24315000   312.39017     -198.54932      1264.2203      3859.1982      11.954441    
  24320000   299.00275     -232.22864      1292.453       3734.0355      7.8037072    
  24325000   299.50035     -215.51017      1243.4555      3706.2063      9.4166026    
  24330000   297.26235     -219.5363       1322.0187      3760.7302      9.2744549    
  24335000   294.38701     -223.81892      1250.0597      3658.776       12.209415    
  24340000   300.17843     -213.41538      1296.6897      3767.599       3.5601133    
  24345000   295.42589     -215.56553      1253.7206      3679.9805      13.451814    
  24350000   301.46438     -220.3509       1249.856       3725.3293      6.8311108    
  24355000   307.18879     -205.84415      1253.2778      3794.448       16.795371    
  24360000   303.1068      -199.78994      1290.702       3801.4234      2.4764809    
  24365000   294.39948     -204.12035      1258.9708      3687.4973      11.08756     
  24370000   297.42122     -204.41083      1313.7736      3769.0312      4.8625109    
  24375000   302.21025     -201.42139      1306.1329      3807.2056      9.9258564    
  24380000   300.63225     -208.90533      1260.3127      3739.7903      4.5849894    
  24385000   303.50021     -193.87331      1324.5192      3844.6753      1.5369683    
  24390000   296.93933     -203.39808      1275.0845      3727.0457      4.4863714    
  24395000   291.5834      -192.73293      1230.3724      3645.1037      7.0401705    
  24400000   302.31638     -210.42973      1260.6021      3753.6154      0.72393908   
  24405000   305.5449      -211.88841      1289.0537      3809.4793      7.0789013    
  24410000   298.81946     -202.68363      1303.6892      3773.1777      6.4017613    
  24415000   299.936       -201.20789      1290.4578      3771.4067      6.999456     
  24420000   293.23237     -221.73919      1301.7664      3702.2373      5.9810136    
  24425000   304.72081     -205.73845      1253.2587      3772.4647      6.3045749    
  24430000   304.97227     -223.42391      1298.4536      3802.2229      5.1740552    
  24435000   301.47534     -194.07145      1286.122       3787.9728      2.5826847    
  24440000   311.70967     -216.25069      1265.4477      3836.6389      9.1051618    
  24445000   297.01288     -198.5968       1316.98        3774.4002      10.633329    
  24450000   300.36267     -202.60379      1355.7607      3839.1291      8.6970696    
  24455000   299.09219     -213.57177      1265.3221      3726.3613      8.5502827    
  24460000   309.12306     -211.84264      1293.7359      3846.2047      7.0698977    
  24465000   303.11676     -220.31699      1291.7036      3781.987       10.838815    
  24470000   300.42384     -213.87075      1257.4632      3730.1117      8.0522542    
  24475000   304.37684     -213.98525      1251.981       3759.8644      11.154754    
  24480000   292.5721      -218.18307      1313.7362      3711.8587      2.1030374    
  24485000   307.88198     -216.16561      1246.6509      3783.6984      16.025616    
  24490000   300.33267     -210.81949      1271.8325      3746.7169      0.93672038   
  24495000   302.45697     -228.48383      1265.5408      3741.7573      7.1116256    
  24500000   303.95935     -206.03815      1264.8784      3776.9755      9.2786521    
  24505000   304.69634     -193.74476      1291.5415      3822.5224      13.661649    
  24510000   303.15113     -228.20804      1318.4885      3801.1883      6.705376     
  24515000   302.71046     -217.68428      1286.9427      3776.2255      9.4650936    
  24520000   300.82577     -205.30597      1299.7287      3784.5361      6.1450422    
  24525000   290.19167     -203.19115      1313.5336      3705.3612      6.0546886    
  24530000   297.00897     -210.67576      1256.3885      3701.6947      9.7906887    
  24535000   299.11695     -222.13882      1291.8438      3744.5374      10.386662    
  24540000   305.89568     -201.73197      1313.9195      3847.6383      4.5274647    
  24545000   304.9909      -224.23836      1256.7054      3759.8269      8.1050617    
  24550000   299.58874     -228.01651      1287.5466      3738.5815      8.0768566    
  24555000   307.38227     -212.01263      1276.6171      3813.349       8.9279251    
  24560000   291.53378     -205.28232      1301.6228      3703.361       7.9480993    
  24565000   304.65409     -202.58778      1283.6867      3805.4469      13.491417    
  24570000   294.95062     -209.53345      1283.2085      3711.2504      2.9089315    
  24575000   301.11501     -208.11052      1284.0066      3768.596       11.529692    
  24580000   301.40146     -196.5238       1305.0281      3803.7658      4.4639123    
  24585000   299.85745     -206.57257      1311.4987      3786.3804      5.915168     
  24590000   299.64272     -214.37558      1296.6103      3761.7688      8.9699847    
  24595000   287.67958     -207.36607      1285.6102      3650.7987      6.6708684    
  24600000   303.5773      -214.1674       1283.9358      3784.4872     -0.24518281   
  24605000   302.85043     -197.23397      1315.3122      3826.2971      8.8873834    
  24610000   313.94347     -215.30375      1273.2835      3865.3973      9.8316624    
  24615000   301.93785     -203.35335      1322.4817      3819.1865      0.48398105   
  24620000   300.7336      -206.27517      1275.2014      3758.2155      10.842427    
  24625000   310.73112     -196.38618      1278.1262      3860.4314      9.3732592    
  24630000   296.88193     -222.37719      1266.4522      3698.9209      0.79186193   
  24635000   300.05454     -212.36823      1301.2391      3772.0877      2.4428731    
  24640000   298.18711     -193.55895      1264.8211      3737.7795      8.6149532    
  24645000   303.32064     -205.71761      1269.5604      3776.2664      4.9580474    
  24650000   295.08383     -207.8196       1268.3557      3699.3026      9.3007595    
  24655000   301.59985     -204.96792      1306.712       3798.7797      4.7282611    
  24660000   306.10715     -218.52309      1247.1096      3765.9283      11.546883    
  24665000   297.79734     -226.62275      1261.1388      3697.548       14.240469    
  24670000   297.80607     -205.78379      1267.6119      3724.938       9.5149381    
  24675000   307.09041     -213.13877      1273.4509      3806.4466      19.234053    
  24680000   299.47781     -213.70082      1284.2062      3748.5648      4.5223441    
  24685000   301.17289     -203.84182      1315.0751      3804.4508      9.4109446    
  24690000   302.75106     -206.17813      1281.4773      3782.6293      3.323966     
  24695000   299.30434     -207.93773      1277.2747      3745.8451      3.5266939    
  24700000   300.54006     -221.97089      1285.4626      3751.0503      10.99102     
  24705000   302.59843     -233.5821       1297.3153      3769.6986      15.622004    
  24710000   300.41397     -230.61291      1252.187       3708.0051      11.351123    
  24715000   300.82966     -197.77383      1275.4763      3767.8507      9.8733727    
  24720000   305.4698      -207.17026      1299.2115      3823.6835      13.985289    
  24725000   301.47607     -212.20731      1285.4553      3769.1767      4.0191668    
  24730000   298.56257     -202.42641      1235.7179      3703.1665      16.060761    
  24735000   301.28672     -204.7189       1332.1246      3821.6412      4.4862837    
  24740000   304.29677     -210.61643      1233.6924      3744.2285      11.108032    
  24745000   306.24127     -208.8659       1266.8793      3796.5545      8.6399703    
  24750000   300.24776     -220.80453      1267.5172      3731.6573      2.9374966    
  24755000   297.36687     -210.25998      1314.6775      3763.6         9.1000033    
  24760000   297.53615     -221.77896      1255.9871      3694.9044      16.197789    
  24765000   305.80566     -227.11201      1281.3286      3788.8624      5.711198     
  24770000   296.12294     -202.12769      1263.8803      3709.8113      9.7529543    
  24775000   301.95759     -209.86146      1274.7672      3765.1404      4.848267     
  24780000   302.86354     -202.33406      1300.2451      3806.2471      8.6432976    
  24785000   290.78002     -207.53673      1312.936       3705.6793      9.4924867    
  24790000   304.30662     -207.54817      1267.1879      3780.8805      4.8186278    
  24795000   303.15532     -192.67847      1335.5994      3853.8662      6.5497504    
  24800000   294.89096     -202.33711      1288.9736      3723.6784      4.9101548    
  24805000   302.56898     -203.97569      1260.4168      3762.143       10.126453    
  24810000   296.46664     -216.60328      1255.7321      3690.2611      6.1187508    
  24815000   286.73747     -225.20057      1282.801       3621.7302     -2.8276059    
  24820000   304.023       -198.2801       1340.7153      3861.1396      18.00086     
  24825000   299.44202     -221.03246      1300.1684      3756.8752      9.8118301    
  24830000   306.559       -214.23618      1275.6747      3802.821       7.7829176    
  24835000   300.24054     -202.38806      1300.3436      3782.8356      8.7679513    
  24840000   293.61826     -205.53159      1278.9975      3699.1268      4.7377589    
  24845000   301.42579     -204.82485      1290.0114      3780.6656      7.2802338    
  24850000   299.43926     -197.1365       1250.7817      3731.3599      11.216298    
  24855000   312.78061     -211.25443      1291.4494      3877.2137      6.9585483    
  24860000   297.20666     -212.65299      1286.8679      3731.9647      6.4432921    
  24865000   301.59092     -200.79866      1273.2573      3769.4144      11.750056    
  24870000   300.74768     -199.1919       1309.6917      3799.9149      8.7694995    
  24875000   299.14973     -226.58969      1261.8364      3710.3723      8.3712972    
  24880000   302.17971     -197.4749       1265.7048      3770.4509      5.7721201    
  24885000   303.63926     -207.78158      1250.7168      3758.2081      6.2137156    
  24890000   295.496       -198.89382      1251.6415      3695.2         12.506167    
  24895000   307.17074     -235.13728      1272.9165      3784.6321      5.165072     
  24900000   298.8818      -192.54872      1229.9758      3710.1566      9.9170812    
  24905000   297.5812      -213.2432       1308.7463      3756.6021      14.945141    
  24910000   299.35904     -207.81784      1262.6072      3731.7866      10.149716    
  24915000   291.14848     -220.41906      1256.2034      3639.3593      10.810275    
  24920000   298.20635     -199.60413      1277.522       3744.6073      9.9393539    
  24925000   294.23922     -229.8562       1230.6582      3632.0157      11.387046    
  24930000   299.36241     -198.05445      1300.696       3779.669       9.2238672    
  24935000   298.20775     -204.99752      1232.6969      3694.4013      6.9713429    
  24940000   303.45712     -201.3064       1286.4572      3798.7949      6.5227515    
  24945000   301.09535     -190.23878      1251.6363      3753.9217     -0.9254557    
  24950000   311.1481      -203.6731       1326.175       3904.9221      7.6381212    
  24955000   299.03959     -206.17952      1297.7149      3765.676       10.0763      
  24960000   298.88795     -216.1665       1307.1085      3763.7266      9.7376855    
  24965000   299.37753     -212.12523      1247.1649      3712.2023      13.368746    
  24970000   300.63944     -212.83387      1257.2961      3732.9095      8.869353     
  24975000   299.35701     -210.65406      1296.1566      3762.4817      15.312444    
  24980000   302.32816     -202.36494      1287.1255      3788.309       9.3637159    
  24985000   291.36452     -206.06875      1226.7233      3626.1614      3.0617058    
  24990000   302.39434     -211.3695       1321.9515      3814.7222      9.3123332    
  24995000   298.485       -214.69058      1246.532       3701.0227      7.0134522    
  25000000   301.30095     -214.09775      1296.6531      3776.9181      6.1164196    
  25005000   300.44995     -209.37363      1277.0071      3754.3861      4.2181549    
  25010000   298.82322     -223.27575      1256.2142      3705.1442      9.5144493    
Loop time of 9506.42 on 64 procs for 25000000 steps with 3001 atoms

Performance: 6816.443 ns/day, 0.004 hours/ns, 2629.801 timesteps/s
99.6% CPU use with 64 MPI tasks x 1 OpenMP threads

MPI task timing breakdown:
Section |  min time  |  avg time  |  max time  |%varavg| %total
---------------------------------------------------------------
Pair    | 100.58     | 112.68     | 151.02     |  69.2 |  1.19
Bond    | 50.781     | 52.516     | 54.005     |   7.4 |  0.55
Neigh   | 1467.9     | 1480.5     | 1495.2     |  18.3 | 15.57
Comm    | 7656.7     | 7690.7     | 7711.4     |  11.8 | 80.90
Output  | 13.45      | 13.458     | 13.49      |   0.2 |  0.14
Modify  | 82.284     | 85.361     | 88.4       |  11.2 |  0.90
Other   |            | 71.17      |            |       |  0.75

Nlocal:        46.8906 ave          70 max          17 min
Histogram: 1 2 4 7 11 14 7 8 6 4
Nghost:        3415.23 ave        3501 max        3343 min
Histogram: 2 7 8 15 5 7 11 5 2 2
Neighs:        275.688 ave         545 max          58 min
Histogram: 4 4 10 13 13 5 3 6 2 4
FullNghs:      551.375 ave        1084 max          99 min
Histogram: 3 5 7 13 14 5 6 4 3 4

Total # of neighbors = 35288
Ave neighs/atom = 11.758747
Ave special neighs/atom = 3.5988004
Neighbor list builds = 2500000
Dangerous builds = 2499990
Total wall time: 2:38:30
