LAMMPS (23 Jun 2022)
OMP_NUM_THREADS environment is not set. Defaulting to 1 thread. (src/src/comm.cpp:98)
  using 1 OpenMP thread(s) per MPI task

variable 		movie equal 5000
variable		solvent equal 0.8  #0.2 is a good solvent, 0.5 is a bad solvent, 1.0 is no solvent/vacuum
variable		np_rad equal 25.0  #NP radius in Angstrom (= 0.1 nm)
variable                coor_del equal 4.0  # in order for a ligand to be considered to be bound, it must be within this radius of the edge of the NP VDW
variable 		E_bind equal 8.0  #ligand-NP binding energy in kcal/mol
variable		Lbox equal 150.0   #edge length of cubic simulation box
variable 		Nlig equal 600	   #number of ligands
variable		seed equal 314159
variable		trajsteps equal 5000000	 #number of timesteps (length of simulation)

units 			real
atom_style		molecular

region 			box block 0 ${Lbox} 0 ${Lbox} 0 ${Lbox} units box
region 			box block 0 150 0 ${Lbox} 0 ${Lbox} units box
region 			box block 0 150 0 150 0 ${Lbox} units box
region 			box block 0 150 0 150 0 150 units box
create_box		4 box bond/types 2 angle/types 1 extra/bond/per/atom 2 extra/angle/per/atom 1 extra/special/per/atom 3
Created orthogonal box = (0 0 0) to (150 150 150)
  2 by 3 by 3 MPI processor grid

molecule		lig ligand.mol
Read molecule template lig:
  1 molecules
  0 fragments
  5 atoms with max type 2
  4 bonds with max type 1
  3 angles with max type 1
  0 dihedrals with max type 0
  0 impropers with max type 0
#molecule		hex hexane.mol

mass            1 60 #C1, MARTINI bead representing a 4-carbon segment of an alkyl chain
mass            2 60 #N6d, MARTINI bead representing a NH2 amino group + a 2-carbon segment of an alkyl chain
mass            3 43 #SC2, MARTINI bead representing a 3-carbon segment of an alkyl chain. NOT USED IN THIS SIMULATION!
mass            4 500 #a spherical nanoparticle. the mass is not realistic.

# put NP in center
create_atoms	4 single $(v_Lbox/2) $(v_Lbox/2) $(v_Lbox/2) units box
create_atoms	4 single 75 $(v_Lbox/2) $(v_Lbox/2) units box
create_atoms	4 single 75 75 $(v_Lbox/2) units box
create_atoms	4 single 75 75 75 units box
Created 1 atoms
  using box units in orthogonal box = (0 0 0) to (150 150 150)
  create_atoms CPU = 0.000 seconds

# define region as everything outside a spherical center in sim. box. ASSUME SIM. BOX IS IMPLIED? doc seems to...
region			box_with_hole sphere $(v_Lbox/2) $(v_Lbox/2) $(v_Lbox/2) $(v_np_rad+5.0) side out units box
region			box_with_hole sphere 75 $(v_Lbox/2) $(v_Lbox/2) $(v_np_rad+5.0) side out units box
region			box_with_hole sphere 75 75 $(v_Lbox/2) $(v_np_rad+5.0) side out units box
region			box_with_hole sphere 75 75 75 $(v_np_rad+5.0) side out units box
region			box_with_hole sphere 75 75 75 30 side out units box

create_atoms	0 random ${Nlig} ${seed} box_with_hole mol lig 12345
create_atoms	0 random 600 ${seed} box_with_hole mol lig 12345
create_atoms	0 random 600 314159 box_with_hole mol lig 12345
Created 3000 atoms
  using lattice units in orthogonal box = (0 0 0) to (150 150 150)
  create_atoms CPU = 0.004 seconds

pair_style		lj/expand 12.0
pair_modify		shift yes

#pair_coeff		1 1 energy sigma delta cut

#ligand-ligand interactions
pair_coeff		1 1 $(v_solvent*0.810) 4.7 0 12
pair_coeff		1 1 0.64800000000000013145 4.7 0 12
pair_coeff		2 2 $(v_solvent*0.841) 4.7 0 12
pair_coeff		2 2 0.67280000000000006466 4.7 0 12
pair_coeff		1 2 $(v_solvent*0.667) 4.7 0 12
pair_coeff		1 2 0.53360000000000007425 4.7 0 12

#solvent-ligand interactions, NOT USED IN THIS SIMULATION
pair_coeff		3 3 0.562 4.1 0 12
pair_coeff		1 3 0.755 4.3 0 12
pair_coeff		2 3 0.554 4.3 0 12

#interactions involving the NP
pair_coeff  	1 4 0.100 4.0 $(v_np_rad-2.5) 12
pair_coeff  	1 4 0.100 4.0 22.5 12
pair_coeff  	3 4 0.100 4.0 $(v_np_rad-2.5) 12
pair_coeff  	3 4 0.100 4.0 22.5 12
pair_coeff		4 4 0.100 4.0 $(2*v_np_rad-4.0) 12
pair_coeff		4 4 0.100 4.0 46 12
pair_coeff   	2 4 ${E_bind} 4.0 $(v_np_rad-2.5) 12 #this interaction controls the binding strength of ligands to the NP core
pair_coeff   	2 4 8 4.0 $(v_np_rad-2.5) 12 
pair_coeff   	2 4 8 4.0 22.5 12 

bond_style  	harmonic
bond_coeff  	1 4.54 4.7 	#C1-C1
bond_coeff		2 5.98 4.05 #SC2-SC2, hexane

angle_style		cosine/squared
angle_coeff		1 4.1826 180

special_bonds 	lj 0 1 1
Finding 1-2 1-3 1-4 neighbors ...
  special bond factors lj:    0        1        1       
  special bond factors coul:  0        0        0       
     2 = max # of 1-2 neighbors
     2 = max # of 1-3 neighbors
     2 = max # of 1-4 neighbors
     7 = max # of special neighbors
  special bonds CPU = 0.001 seconds

group			ligands type 1 2
3000 atoms in group ligands


#EQULILIBRATION: getting rid of overlaps between particles using fix nve/limit ***************

fix 			1 ligands nve/limit 0.1
fix 			2 ligands langevin 300 300 1000 12345 #langevin thermostat

timestep		30

thermo 			5000

dump      		1 all custom ${movie} pos.lammpstrj type x y z
dump      		1 all custom 5000 pos.lammpstrj type x y z
dump_modify		1 sort id

run				10000
Generated 0 of 6 mixed pair_coeff terms from geometric mixing rule
Neighbor list info ...
  update every 1 steps, delay 10 steps, check yes
  max neighbors/atom: 2000, page size: 100000
  master list distance cutoff = 60
  ghost atom cutoff = 60
  binsize = 30, bins = 5 5 5
  1 neighbor lists, perpetual/occasional/extra = 1 0 0
  (1) pair lj/expand, perpetual
      attributes: half, newton on
      pair build: half/bin/newton
      stencil: half/bin/3d
      bin: standard
Per MPI rank memory allocation (min/avg/max) = 8.329 | 8.352 | 8.375 Mbytes
   Step          Temp          E_pair         E_mol          TotEng         Press     
         0   0              3.8874757e+13  3.7351619e-25  3.8874757e+13  3.1592071e+12
      5000   141.12346     -5542.4826      661.24145     -3619.2544     -4.3539316    
     10000   137.25765     -6336.3456      659.33226     -4449.5964     -3.41987      
Loop time of 4.89558 on 18 procs for 10000 steps with 3001 atoms

Performance: 5294.572 ns/day, 0.005 hours/ns, 2042.659 timesteps/s
99.6% CPU use with 18 MPI tasks x 1 OpenMP threads

MPI task timing breakdown:
Section |  min time  |  avg time  |  max time  |%varavg| %total
---------------------------------------------------------------
Pair    | 0.27922    | 0.65784    | 1.0137     |  25.3 | 13.44
Bond    | 0.043822   | 0.086594   | 0.11532    |   5.9 |  1.77
Neigh   | 1.81       | 1.8189     | 1.8288     |   0.4 | 37.15
Comm    | 1.7244     | 2.1422     | 2.6117     |  16.5 | 43.76
Output  | 0.0014047  | 0.0014173  | 0.0014402  |   0.0 |  0.03
Modify  | 0.066204   | 0.11779    | 0.15628    |   6.5 |  2.41
Other   |            | 0.0708     |            |       |  1.45

Nlocal:        166.722 ave         246 max          63 min
Histogram: 1 0 2 3 1 3 3 1 0 4
Nghost:        4758.72 ave        5057 max        4451 min
Histogram: 2 2 1 1 4 1 2 2 1 2
Neighs:        3502.39 ave        5889 max        1030 min
Histogram: 1 1 3 1 3 4 1 0 0 4

Total # of neighbors = 63043
Ave neighs/atom = 21.007331
Ave special neighs/atom = 3.5988004
Neighbor list builds = 909
Dangerous builds = 0

#PRODUCTION RUN ******************************************************************************

unfix 			1
fix 			1 ligands nve
undump			1
# define spherical region in center of sim. box
# region			center sphere $(v_Lbox/2) $(v_Lbox/2) $(v_Lbox/2) $(v_np_rad+5.0) units box
# delete atoms in the region
# delete_atoms	region center mol yes
# put NP in the hole
# create_atoms	4 single $(v_Lbox/2) $(v_Lbox/2) $(v_Lbox/2) units box

dump      		2 all custom ${movie} pos2.lammpstrj type x y z
dump      		2 all custom 5000 pos2.lammpstrj type x y z
dump_modify		2 sort id

group           nps     type 4
1 atoms in group nps
group           amines  type 2
600 atoms in group amines

# count coordination number of NP
compute coords nps coord/atom cutoff $(v_np_rad + v_coor_del) 2
compute coords nps coord/atom cutoff 29 2
dump 3 nps custom ${movie} coords.dmp c_coords
dump 3 nps custom 5000 coords.dmp c_coords
# equivalent calculation below
# compute coords nps coord/atom cutoff 28 group amines
# dump 4 nps custom ${movie} coords2.dmp type c_coords2

#second shell
compute coords2 nps coord/atom cutoff 35 2
dump 4 nps custom ${movie} coords2.dmp c_coords2
dump 4 nps custom 5000 coords2.dmp c_coords2


run				${trajsteps}
run				5000000
Generated 0 of 6 mixed pair_coeff terms from geometric mixing rule
Neighbor list info ...
  update every 1 steps, delay 10 steps, check yes
  max neighbors/atom: 2000, page size: 100000
  master list distance cutoff = 60
  ghost atom cutoff = 60
  binsize = 30, bins = 5 5 5
  3 neighbor lists, perpetual/occasional/extra = 1 2 0
  (1) pair lj/expand, perpetual
      attributes: half, newton on
      pair build: half/bin/newton
      stencil: half/bin/3d
      bin: standard
  (2) compute coord/atom, occasional
      attributes: full, newton on
      pair build: full/bin
      stencil: full/bin/3d
      bin: standard
  (3) compute coord/atom, occasional
      attributes: full, newton on
      pair build: full/bin
      stencil: full/bin/3d
      bin: standard
Per MPI rank memory allocation (min/avg/max) = 10.35 | 10.5 | 12.34 Mbytes
   Step          Temp          E_pair         E_mol          TotEng         Press     
     10000   137.25765     -6336.3456      659.33226     -4449.5964     -3.41987      
     15000   292.15558     -5040.4832      1283.259      -1144.6434      0.76266495   
     20000   303.68405     -5538.2855      1301.5072     -1521.1049     -8.5425736    
     25000   300.3163      -5947.9483      1294.4956     -1967.8951      2.8214506    
     30000   298.56698     -6272.7979      1282.3536     -2320.5299     -12.495122    
     35000   306.58292     -6680.034       1297.3662     -2641.0715      2.8034659    
     40000   299.83282     -6963.9993      1313.3676     -2969.3976      4.6109251    
     45000   295.95991     -7211.4374      1225.0226     -3339.814       19.21591     
     50000   296.21299     -7399.5288      1249.1694     -3501.4954     -4.3527177    
     55000   298.06294     -7635.6481      1233.1948     -3737.0463      4.9929258    
     60000   300.0201      -7714.0669      1230.1805     -3800.9777      14.7151      
     65000   300.69983     -7860.1936      1301.5592     -3869.6472      17.648165    
     70000   302.9928      -7998.2165      1228.9653     -4059.7593     -10.615148    
     75000   291.76501     -7895.4767      1294.3504     -3992.0381     -9.5518027    
     80000   294.85758     -8080.9084      1272.1124     -4172.0527      3.2938878    
     85000   297.82704     -8065.594       1306.0037     -4096.2928      12.692541    
     90000   300.83369     -8296.0854      1273.6396     -4332.2615      9.6844005    
     95000   290.98919     -8265.9124      1297.6903     -4366.0716     -15.378372    
    100000   302.60086     -8389.6558      1245.3843     -4438.2845      3.5952168    
    105000   299.48762     -8419.866       1302.1319     -4439.587       1.8486437    
    110000   295.96411     -8475.489       1212.7353     -4616.1153      1.0709175    
    115000   300.95302     -8499.2593      1255.554      -4552.4539      13.704752    
    120000   300.79555     -8526.7771      1213.6703     -4623.2637      11.262332    
    125000   300.36561     -8607.1649      1281.9121     -4639.2543     -7.5337907    
    130000   306.98759     -8618.6078      1286.2304     -4587.1623      6.3653528    
    135000   294.38301     -8705.0409      1255.0184     -4817.523       4.6984225    
    140000   298.20177     -8771.1834      1257.0154     -4847.5195      0.059889571  
    145000   299.78256     -8867.4749      1253.4411     -4933.2492      8.6815702    
    150000   305.61547     -8889.6764      1234.9055     -4921.8259      0.32373644   
    155000   302.36793     -8985.4226      1245.828      -5035.6906      9.0650771    
    160000   298.21838     -9019.5706      1223.6556     -5129.118       32.259916    
    165000   296.13509     -8968.8742      1262.458      -5058.2489     -3.4065626    
    170000   303.46336     -9029.9723      1259.5924     -5056.68       -29.048913    
    175000   297.00697     -9149.8065      1246.7663     -5247.0762      17.815309    
    180000   296.26111     -9158.5966      1287.2226     -5222.0798     -4.9762545    
    185000   307.67573     -9213.1065      1217.6197     -5244.118       3.0671933    
    190000   305.61405     -9297.4707      1221.7838     -5342.7545      1.632861     
    195000   301.39529     -9241.4127      1278.2146     -5267.9918     -29.415712    
    200000   302.29645     -9266.536       1221.316      -5341.9551      15.800871    
    205000   297.10402     -9341.8876      1271.2505     -5413.8052      8.8386559    
    210000   297.44956     -9262.8495      1231.1612     -5371.7664      2.6238376    
    215000   306.87041     -9273.2066      1229.6322     -5299.4073      7.2667616    
    220000   296.95961     -9234.6355      1270.2128     -5308.8821     -8.2106509    
    225000   300.22769     -9252.5936      1217.1872     -5350.6412     -24.223219    
    230000   297.73107     -9322.6619      1295.0824     -5365.1402     -10.221855    
    235000   300.9017      -9343.0549      1226.7735     -5425.489       10.213305    
    240000   300.74996     -9238.8103      1240.7948     -5308.58        17.024733    
    245000   297.69646     -9257.9902      1220.1586     -5375.7018     -6.9140963    
    250000   296.09928     -9320.171       1241.147      -5431.1769     -2.0813763    
    255000   298.55241     -9390.2247      1237.1322     -5483.3084      1.0685038    
    260000   301.71124     -9249.0944      1229.2019     -5321.8609     -2.2583476    
    265000   302.30451     -9226.5216      1278.1302     -5245.0545      27.057607    
    270000   301.8291      -9238.4652      1223.5928     -5315.7868      16.972385    
    275000   295.05852     -9322.9504      1204.1809     -5480.2293      31.613279    
    280000   293.22604     -9253.0416      1263.622      -5367.2662     -0.42378143   
    285000   307.17841     -9279.4883      1238.1905     -5294.3763     -10.432121    
    290000   303.61075     -9307.7843      1243.8608     -5348.9057      15.587932    
    295000   299.44721     -9233.7327      1212.7856     -5343.1613      0.68093949   
    300000   299.51922     -9268.1675      1195.9652     -5393.7726     -8.1092169    
    305000   306.79567     -9294.2249      1217.0112     -5333.7149      6.506875     
    310000   307.70577     -9264.335       1264.2733     -5248.4244      5.320582     
    315000   300.87482     -9117.1578      1275.1269     -5151.4789     -21.846071    
    320000   305.20499     -9246.6314      1282.5846     -5234.7725      17.167296    
    325000   299.8806      -9229.4545      1214.0059     -5333.7874     -13.928645    
    330000   299.022       -9203.3516      1245.1745     -5284.1938      16.920417    
    335000   292.7133      -9352.4346      1287.8503     -5447.016       14.431906    
    340000   303.62857     -9333.0805      1227.5123     -5390.3909     -6.2560231    
    345000   296.24066     -9290.5512      1287.6202     -5353.8196     -10.878635    
    350000   301.02702     -9334.1248      1231.7945     -5410.4172     -3.7358606    
    355000   302.86886     -9268.3114      1221.0673     -5338.8604      18.235103    
    360000   306.16939     -9380.6211      1260.731      -5381.9918      21.13005     
    365000   300.03336     -9264.1081      1225.3814     -5355.6993      13.000478    
    370000   294.16373     -9288.7379      1248.7478     -5409.4516      7.0171065    
    375000   298.35838     -9300.9468      1285.2279     -5347.6699     -16.618848    
    380000   302.08472     -9367.0839      1253.311      -5412.4014     -14.594456    
    385000   298.4071      -9395.1055      1234.0472     -5492.5736      9.5565511    
    390000   304.83722     -9393.9513      1235.7478     -5432.218       9.1153936    
    395000   303.67666     -9455.147       1246.2163     -5493.3233      10.997451    
    400000   291.12589     -9453.7819      1262.701      -5587.708       14.582077    
    405000   300.96024     -9405.6336      1239.6447     -5474.673       24.244552    
    410000   301.03067     -9353.996       1253.5261     -5408.5242     -31.909477    
    415000   291.93041     -9415.2515      1224.0318     -5580.6524     -25.602476    
    420000   295.10681     -9456.2417      1229.9895     -5587.2802     -9.698485     
    425000   303.41638     -9440.1771      1293.1625     -5433.7348      2.3926997    
    430000   309.70906     -9395.5859      1246.699      -5379.3354      14.917177    
    435000   297.13847     -9392.6161      1230.5914     -5504.8847      48.211922    
    440000   300.08309     -9445.6633      1205.1307     -5557.0605      5.26027      
    445000   304.88325     -9377.4314      1199.053      -5451.9813      19.611107    
    450000   300.27441     -9403.1818      1244.6713     -5473.3276     -22.322079    
    455000   307.79129     -9428.5563      1234.4473     -5441.7069     -26.318512    
    460000   293.39932     -9393.523       1197.1974     -5572.6226     -9.5345866    
    465000   300.81433     -9467.7336      1240.6832     -5537.0393     -22.009098    
    470000   295.53153     -9366.0483      1246.6056     -5476.6727     -13.362603    
    475000   295.10196     -9393.9774      1229.4923     -5525.5565      14.167394    
    480000   301.29444     -9424.3251      1258.6254     -5471.3952     -17.215096    
    485000   304.04407     -9415.9919      1196.4388     -5500.6602      31.227179    
    490000   296.26616     -9347.9073      1230.5164     -5468.0514     -28.623007    
    495000   298.05052     -9383.2342      1209.5015     -5508.4368     -13.633224    
    500000   294.69902     -9404.4039      1240.745      -5528.3335      6.9206818    
    505000   300.16813     -9387.2339      1248.2262     -5454.7751      2.1325815    
    510000   309.06793     -9375.6158      1245.7249     -5366.0726     -2.8543185    
    515000   296.86716     -9358.8245      1188.3635     -5515.7472      22.966879    
    520000   302.68544     -9411.6607      1184.1156     -5520.8016     -30.218298    
    525000   293.27319     -9483.8101      1279.9277     -5581.3074     -16.381586    
    530000   299.12994     -9388.8991      1193.4767     -5520.4737      29.136895    
    535000   299.39152     -9411.7724      1260.1492     -5474.3354      20.787504    
    540000   299.06772     -9458.4414      1198.4075     -5585.6417      14.552325    
    545000   292.14564     -9463.1019      1268.8649     -5581.745       5.0541899    
    550000   293.85353     -9384.7662      1234.8267     -5522.1748     -16.4358      
    555000   303.81843     -9373.612       1226.1647     -5430.5722      0.045498576  
    560000   297.92292     -9367.0024      1232.2566     -5470.5909      9.8001406    
    565000   299.98231     -9428.2946      1248.0808     -5497.643       16.553791    
    570000   303.50975     -9361.5643      1251.6408     -5395.8087     -7.3890212    
    575000   309.34043     -9404.2491      1261.8602     -5376.1337     -9.0138669    
    580000   308.90369     -9401.8026      1232.5246     -5406.9283      14.06275     
    585000   300.31366     -9393.7866      1215.6353     -5492.6174      1.8531754    
    590000   292.15664     -9421.6486      1253.7272     -5555.3311     -14.252869    
    595000   298.57315     -9499.7457      1237.6945     -5592.0816      10.231579    
    600000   302.10328     -9475.5656      1272.8508     -5501.1774     -12.918722    
    605000   299.25899     -9429.0971      1228.111      -5524.8834     -14.663865    
    610000   294.7382      -9420.819       1254.6494     -5530.4939      4.9007922    
    615000   301.55962     -9407.0426      1216.4737     -5493.893       5.1537719    
    620000   295.84055     -9405.1222      1218.6498     -5540.939      -3.82916      
    625000   298.72939     -9484.1089      1222.7036     -5590.0386      1.6360034    
    630000   300.4925      -9406.5541      1282.9623     -5436.4586      8.2282641    
    635000   309.10794     -9346.5851      1219.0246     -5363.3843     -20.989188    
    640000   296.35239     -9361.6273      1232.9035     -5478.6133      0.92685788   
    645000   301.71652     -9522.276       1239.6231     -5584.574       1.7305279    
    650000   308.87481     -9341.0772      1287.7561     -5291.2297     -10.758068    
    655000   300.36345     -9424.6927      1218.545      -5520.1686     -5.0157775    
    660000   302.06012     -9434.2257      1236.4491     -5496.6251      35.834136    
    665000   296.27904     -9389.7596      1269.6709     -5470.6341      8.6048806    
    670000   293.77458     -9383.4025      1266.157      -5490.1869      13.327006    
    675000   292.12772     -9405.3939      1234.2486     -5558.8136     -3.981326     
    680000   297.56783     -9439.8375      1249.5472     -5529.3108      21.594048    
    685000   297.93376     -9416.0884      1261.2411     -5490.5955     -11.603686    
    690000   292.67748     -9496.4085      1256.779      -5622.3816     -10.449325    
    695000   296.87726     -9435.1795      1243.4513     -5536.9241      2.766634     
    700000   295.87069     -9466.5969      1228.0837     -5592.7102     -2.068315     
    705000   295.70276     -9424.0532      1211.0662     -5568.6858      4.3093997    
    710000   296.4503      -9455.6372      1275.5996     -5529.0515     -7.7798897    
    715000   297.48092     -9473.3442      1294.8536     -5518.2882      11.869172    
    720000   296.36407     -9362.4117      1249.0996     -5463.097      -14.330593    
    725000   293.70678     -9421.572       1261.2657     -5533.8539      11.968256    
    730000   298.20323     -9393.2111      1226.9054     -5499.6441     -9.0966108    
    735000   293.89156     -9399.7478      1190.8542     -5580.7889     -12.117373    
    740000   303.07961     -9468.405       1266.8851     -5491.2517     -16.702902    
    745000   304.09263     -9366.499       1260.8979     -5386.274      -0.15279083   
    750000   300.05828     -9294.3501      1274.9583     -5336.1416      1.1363565    
    755000   293.65978     -9369.021       1238.2754     -5504.7135     -11.066471    
    760000   293.11146     -9281.5336      1240.1855     -5420.2194     -6.1635718    
    765000   301.74141     -9323.3457      1283.8767     -5341.1675      26.437869    
    770000   304.79301     -9386.7302      1217.9734     -5443.1666     -17.973106    
    775000   297.45157     -9391.1144      1203.8457     -5527.3288     -15.235238    
    780000   295.88577     -9399.7285      1231.732      -5522.0587     -6.9804972    
    785000   299.21408     -9330.0807      1284.0051     -5370.3745      31.072136    
    790000   296.6652      -9489.3251      1241.7742     -5594.643       6.8525302    
    795000   304.8357      -9404.9611      1258.2988     -5420.6903      7.5820379    
    800000   292.65029     -9398.4247      1250.7385     -5530.6815      3.4631802    
    805000   299.61762     -9315.633       1235.4038     -5400.9196      36.245278    
    810000   299.58357     -9391.779       1236.7355     -5476.0383     -18.837395    
    815000   301.64255     -9395.5189      1214.1301     -5483.9714     -14.931849    
    820000   306.66083     -9381.3994      1231.3722     -5407.7342      4.7599573    
    825000   301.23901     -9461.8623      1198.6697     -5569.3838      6.1455754    
    830000   303.57572     -9370.1369      1278.4328     -5376.9994     -0.97954149   
    835000   303.38884     -9361.5613      1243.7255     -5404.8024     -3.5330773    
    840000   297.51971     -9327.2504      1237.5317     -5429.1694     -20.182621    
    845000   298.56331     -9360.9899      1216.0342     -5475.0742     -6.7496762    
    850000   303.44451     -9390.7294      1204.6421     -5472.556      -29.017127    
    855000   289.80883     -9424.255       1263.2526     -5569.4071      11.627644    
    860000   296.22635     -9368.7982      1272.6794     -5447.1353     -8.2400104    
    865000   300.64618     -9432.0994      1259.5726     -5484.0193      48.565334    
    870000   297.6361      -9443.3335      1227.0321     -5554.7113     -15.745532    
    875000   303.48602     -9350.3413      1219.5895     -5416.8492      10.36409     
    880000   298.16887     -9374.7291      1188.5444     -5519.8304      1.9564611    
    885000   296.51933     -9378.9453      1252.04       -5475.3019     -12.266259    
    890000   287.2523      -9443.614       1246.3633     -5628.5171      4.7806266    
    895000   304.29556     -9320.1537      1229.0777     -5369.9342     -28.186555    
    900000   301.38524     -9503.1313      1236.5557     -5571.4591      15.617425    
    905000   301.72269     -9376.8312      1253.3013     -5425.3959      6.4256465    
    910000   293.11623     -9380.9387      1262.0231     -5497.7442     -19.367209    
    915000   306.6838      -9436.2112      1232.4727     -5461.2401      7.2708321    
    920000   300.617       -9451.6973      1211.5538     -5551.897       11.54243     
    925000   302.33974     -9487.4441      1275.1618     -5508.6303     -23.682535    
    930000   297.27233     -9428.4329      1250.5561     -5519.5398     -15.275685    
    935000   290.58725     -9427.6858      1230.1449     -5598.9848     -1.2945664    
    940000   301.15366     -9352.0889      1225.4863     -5433.557      -12.19005     
    945000   301.87831     -9457.3264      1225.3838     -5532.4169      1.2424758    
    950000   301.59254     -9392.8506      1204.5403     -5491.3402     -34.174379    
    955000   296.00795     -9334.8857      1205.3904     -5482.465       15.861215    
    960000   297.80441     -9424.4751      1241.3607     -5520.0192      2.3804303    
    965000   301.58337     -9402.1196      1223.7056     -5481.5258      16.570726    
    970000   300.10378     -9456.6113      1282.6673     -5490.2869     -20.932517    
    975000   300.90831     -9394.708       1256.7434     -5447.1131      4.4597006    
    980000   296.31362     -9394.5747      1204.414      -5540.3968     -5.5902103    
    985000   298.98634     -9363.1625      1253.96       -5435.5379     -0.76066519   
    990000   291.88044     -9305.4797      1242.3016     -5453.0576     -1.0138907    
    995000   305.6366      -9424.9033      1249.1886     -5442.5808      5.945219     
   1000000   295.73453     -9403.1926      1215.4655     -5543.1417      7.260592     
   1005000   303.18762     -9392.1233      1260.4835     -5420.4057      17.199942    
   1010000   298.0028      -9454.9736      1266.8577     -5523.2468     -16.555805    
   1015000   295.75774     -9386.8578      1267.8364     -5474.2285      22.261112    
   1020000   304.04215     -9477.0339      1242.2451     -5515.9132     -2.9814112    
   1025000   306.45901     -9394.6002      1222.4459     -5431.6661     -1.8755998    
   1030000   295.32045     -9379.6557      1224.6882     -5514.085       1.3443401    
   1035000   294.67621     -9360.578       1210.8713     -5514.5853      6.1945334    
   1040000   297.10219     -9409.2622      1211.4029     -5541.0438     -5.2135048    
   1045000   294.06934     -9393.536       1219.9986     -5543.8429     -23.793656    
   1050000   291.07603     -9329.209       1217.3682     -5508.9138      2.3879024    
   1055000   290.791       -9431.5477      1224.767      -5606.4025     -7.0253646    
   1060000   293.51008     -9438.6545      1279.5594     -5534.4018      0.082392387  
   1065000   299.72965     -9381.7904      1292.1367     -5409.3422      15.460934    
   1070000   300.63255     -9385.4289      1253.1407     -5443.9026      15.314792    
   1075000   291.18567     -9409.6946      1221.1962     -5584.5909     -9.3036442    
   1080000   299.51114     -9312.6777      1210.3071     -5424.0132     -31.543823    
   1085000   304.83683     -9422.2516      1254.1742     -5442.0953      4.2002493    
   1090000   309.37729     -9467.9444      1271.012      -5430.3476     -5.114965     
   1095000   303.36818     -9337.6124      1263.7293     -5361.0344     -12.810132    
   1100000   302.03297     -9386.329       1238.5481     -5446.8721     -10.70603     
   1105000   297.764       -9462.5972      1208.6478     -5591.2155     -14.896822    
   1110000   297.71797     -9421.1672      1260.6954     -5498.1497      1.8406792    
   1115000   303.48602     -9375.6067      1210.6112     -5451.093       12.872647    
   1120000   298.02572     -9296.5856      1248.6993     -5382.8122      8.6076484    
   1125000   301.97999     -9322.7799      1209.3512     -5412.9937      5.4580613    
   1130000   308.43767     -9374.0269      1179.345      -5436.4996     -10.263299    
   1135000   293.25022     -9447.0413      1293.4501     -5531.2215      8.9157816    
   1140000   309.00009     -9418.3092      1235.6464     -5419.4511     -4.6559353    
   1145000   299.05047     -9478.3297      1244.5988     -5559.493      -10.965794    
   1150000   293.14176     -9453.2622      1230.7701     -5601.0924     -20.456913    
   1155000   293.12306     -9498.3642      1217.303      -5659.8288     -20.333389    
   1160000   299.53867     -9422.4019      1213.5288     -5530.2694     -2.1565514    
   1165000   291.73967     -9490.4287      1220.7417     -5660.8254     -4.1494618    
   1170000   298.31923     -9393.1196      1238.8141     -5486.6067     -7.4501135    
   1175000   304.64011     -9488.3411      1231.1621     -5532.9561     -12.837091    
   1180000   299.65369     -9493.0613      1223.3612     -5590.0679     -14.788035    
   1185000   304.47457     -9494.8082      1263.3886     -5508.677       6.0031661    
   1190000   292.95406     -9463.9543      1216.0125     -5628.2206     -1.762135     
   1195000   299.93785     -9493.9317      1205.7989     -5605.9595      19.450851    
   1200000   298.70147     -9495.9169      1246.1175     -5578.6823      21.393917    
   1205000   300.80087     -9413.1622      1237.6351     -5485.6363     -0.86803417   
   1210000   296.15696     -9404.5037      1285.4709     -5470.6699      26.350846    
   1215000   296.62008     -9421.9902      1251.8077     -5517.6781     -0.53468415   
   1220000   296.8469      -9451.179       1249.2853     -5547.361      -2.5065351    
   1225000   305.90922     -9440.2491      1219.0962     -5485.5811     -6.9737269    
   1230000   305.48324     -9470.1026      1218.4498     -5519.8903      9.4681753    
   1235000   299.13066     -9421.0694      1237.8653     -5508.249       14.424557    
   1240000   303.22657     -9424.6391      1247.2984     -5465.7583     -5.1241865    
   1245000   302.96904     -9343.7079      1227.4585     -5406.9699      6.9882344    
   1250000   303.68811     -9400.3211      1249.6919     -5434.9195     -1.6236878    
   1255000   304.52822     -9426.4474      1257.459      -5445.766       12.529908    
   1260000   298.31824     -9371.3905      1257.2413     -5446.4591     -6.7945783    
   1265000   307.57951     -9443.6781      1299.0094     -5394.1605      0.70279273   
   1270000   302.08839     -9418.9427      1233.9508     -5483.5876     -19.498417    
   1275000   298.22838     -9420.5781      1213.2821     -5540.4095      1.2968532    
   1280000   307.9326      -9382.2885      1250.1842     -5378.4385     -0.88910331   
   1285000   300.35123     -9436.0898      1161.4764     -5588.7435     -5.5177768    
   1290000   305.29848     -9422.2297      1266.224      -5425.8953     -9.6929794    
   1295000   297.35473     -9335.2212      1262.0887     -5414.0586     -13.524435    
   1300000   298.88859     -9450.8984      1207.1616     -5570.9464     -29.3069      
   1305000   297.50657     -9372.4917      1278.7844     -5433.2755      10.991804    
   1310000   293.68064     -9415.3985      1246.485      -5542.695       27.701134    
   1315000   298.14511     -9457.6448      1237.5752     -5553.9278     -41.222488    
   1320000   301.48999     -9417.2942      1282.1499     -5439.0912     -20.438449    
   1325000   301.07896     -9532.5336      1256.6967     -5583.4593     -4.3870742    
   1330000   305.77959     -9414.5245      1272.6134     -5407.4986     -9.4127322    
   1335000   298.1689      -9428.6839      1225.3254     -5537.004      -32.525469    
   1340000   301.29039     -9453.538       1237.4099     -5521.8597      27.024055    
   1345000   299.8688      -9441.494       1222.354      -5537.5841     -4.2995213    
   1350000   300.63364     -9369.691       1253.8111     -5427.4846     -2.815875     
   1355000   296.4538      -9417.0764      1200.1606     -5565.8984      16.566947    
   1360000   305.11024     -9319.7353      1199.958      -5391.3503      33.731978    
   1365000   298.27693     -9403.6519      1260.0381     -5476.2931     -16.105858    
   1370000   295.50032     -9433.8987      1243.5046     -5547.9031     -8.3591738    
   1375000   299.90173     -9436.0517      1258.1678     -5496.0336     -5.5120807    
   1380000   295.07158     -9335.871       1222.3502     -5474.8638     -7.8383367    
   1385000   297.94088     -9434.79        1230.0806     -5540.3938     -18.411404    
   1390000   290.56968     -9412.9774      1226.8819     -5587.6964     -15.569943    
   1395000   295.9607      -9507.3022      1237.7481     -5622.9463      3.1516576    
   1400000   294.47754     -9517.5625      1253.7866     -5630.4311     -2.2093145    
   1405000   299.29342     -9467.5364      1205.3979     -5585.728      -19.507137    
   1410000   305.36043     -9458.1096      1215.5726     -5511.8727      23.034373    
   1415000   297.0698      -9416.2319      1247.3687     -5512.3373      20.278075    
   1420000   298.1235      -9437.5692      1217.7001     -5553.9204      16.282991    
   1425000   297.31138     -9453.1998      1265.872      -5528.6415      11.852956    
   1430000   305.75279     -9422.5493      1241.4714     -5446.9049      1.6628729    
   1435000   302.44418     -9383.5317      1203.8948     -5475.051       22.591904    
   1440000   303.62972     -9441.9555      1238.7376     -5488.0304      0.5179829    
   1445000   299.80418     -9349.4931      1227.359      -5441.1561     -9.6017524    
   1450000   300.86802     -9401.0661      1287.6735     -5422.9013      2.7226995    
   1455000   297.62213     -9395.182       1261.3747     -5472.3421     -6.1415231    
   1460000   299.84284     -9504.3323      1192.8271     -5630.1816     -14.411244    
   1465000   292.07937     -9445.3897      1184.1878     -5649.3025     -10.918494    
   1470000   304.57671     -9431.583       1212.1792     -5495.7479     -9.2370404    
   1475000   293.56557     -9316.5665      1290.7799     -5400.597      -21.666397    
   1480000   303.14499     -9440.5222      1204.5358     -5525.1336      31.2277      
   1485000   302.94791     -9431.9678      1236.788      -5486.0893      12.040062    
   1490000   292.81227     -9407.3543      1247.6891     -5541.2119     -0.43731646   
   1495000   302.5283      -9473.2168      1203.3878     -5564.4908     -15.220505    
   1500000   297.25693     -9447.8413      1143.6467     -5645.9953     -18.771849    
   1505000   302.45495     -9458.236       1210.3139     -5543.2398      13.698878    
   1510000   297.92451     -9418.9756      1205.4509     -5549.3556      4.828232     
   1515000   295.97314     -9498.1324      1272.6678     -5578.7455     -5.3176829    
   1520000   303.11425     -9467.0193      1223.8767     -5532.5646      32.5422      
   1525000   300.14683     -9401.3085      1187.1445     -5530.122      -0.25548343   
   1530000   302.54907     -9483.5635      1238.8595     -5539.1801      5.6609835    
   1535000   300.58214     -9436.4252      1216.805      -5531.6854     -17.771545    
   1540000   300.08232     -9406.05        1251.9396     -5470.6451      13.921494    
   1545000   297.7873      -9446.1579      1274.2557     -5508.96       -30.110424    
   1550000   304.77407     -9388.4024      1214.7325     -5448.2491     -3.6367172    
   1555000   297.71474     -9447.2057      1228.9163     -5555.9961     -17.374239    
   1560000   298.71331     -9432.1569      1270.0699     -5490.8641      15.691277    
   1565000   299.69489     -9432.94        1225.5488     -5527.3906      17.406       
   1570000   300.53949     -9423.8775      1295.5426     -5440.7815      7.3485914    
   1575000   302.10652     -9491.598       1204.5234     -5585.5082      12.160455    
   1580000   302.88535     -9423.6539      1229.4626     -5485.6602      19.315172    
   1585000   294.63428     -9412.608       1270.4498     -5507.4117      18.178194    
   1590000   301.19749     -9424.298       1217.0122     -5513.8483     -10.853409    
   1595000   301.82564     -9469.0702      1215.0421     -5554.9735     -6.4836261    
   1600000   305.70029     -9390.115       1205.0143     -5451.3972      7.3107048    
   1605000   299.25162     -9399.6111      1235.9816     -5487.5928     -2.889257     
   1610000   293.58875     -9423.0537      1157.8966     -5639.7602      9.4874124    
   1615000   304.28778     -9429.2793      1232.3061     -5475.9009     -6.226749     
   1620000   306.79232     -9434.2935      1236.5924     -5454.2321      11.093645    
   1625000   302.3444      -9446.4084      1214.4948     -5528.2199     -0.63190274   
   1630000   301.7551      -9406.028       1268.3578     -5439.2463     -1.2878619    
   1635000   304.04711     -9420.3219      1240.6302     -5460.7717     -33.509443    
   1640000   299.25263     -9457.5886      1214.7296     -5566.8133      6.9051396    
   1645000   294.31898     -9333.2393      1212.5117     -5488.8006     -7.9138123    
   1650000   306.99938     -9411.627       1246.9436     -5419.3628     -33.104879    
   1655000   295.59776     -9442.4644      1253.0126     -5546.0895     -14.658637    
   1660000   298.07637     -9450.8213      1240.8692     -5544.4249      2.1473627    
   1665000   304.22628     -9422.7867      1262.9937     -5439.2708      6.2826448    
   1670000   298.85942     -9381.8795      1210.2661     -5499.0839      9.0053248    
   1675000   303.22426     -9425.2083      1227.3229     -5486.3237     -2.4518324    
   1680000   301.25411     -9484.1311      1209.4463     -5580.741       26.734779    
   1685000   296.86876     -9434.9883      1259.782      -5520.4782      17.81622     
   1690000   297.10021     -9450.926       1258.5833     -5535.5449      14.211783    
   1695000   299.39557     -9458.7045      1211.7705     -5569.61        3.4615613    
   1700000   302.98356     -9412.8801      1220.5918     -5482.8789     -4.487898     
   1705000   302.14249     -9412.5721      1237.0518     -5473.6322      3.4337428    
   1710000   299.06726     -9414.4741      1237.1571     -5502.9289      0.51714008   
   1715000   298.05648     -9427.0625      1225.9695     -5535.7438     -16.100363    
   1720000   300.35349     -9548.3364      1210.71       -5651.7364      16.794965    
   1725000   302.659       -9411.3699      1290.8877     -5413.9752     -0.5354843    
   1730000   298.8108      -9406.6053      1234.2623     -5500.2482     -8.5618128    
   1735000   293.70063     -9407.7636      1245.5319     -5535.8343     -11.715819    
   1740000   298.06546     -9295.8767      1218.3673     -5412.0799      1.5675743    
   1745000   298.08078     -9394.8429      1240.1662     -5489.1101     -21.091262    
   1750000   298.69356     -9431.2838      1213.2607     -5546.9768      36.401746    
   1755000   302.79292     -9512.2536      1215.125      -5589.4241     -9.9505296    
   1760000   308.54678     -9428.1749      1201.7933     -5467.2235     -17.386275    
   1765000   296.28193     -9494.8885      1231.6526     -5613.7554     -5.4599727    
   1770000   301.28514     -9445.1521      1193.477      -5557.4538     -8.5692179    
   1775000   297.83436     -9453.4237      1291.8532     -5498.2076     -5.3440374    
   1780000   305.60698     -9446.2827      1248.5935     -5464.8201     -2.1133025    
   1785000   301.66365     -9374.1783      1230.6923     -5445.88       -34.665182    
   1790000   303.03893     -9489.1525      1230.0738     -5549.1742      15.077629    
   1795000   300.69744     -9499.4265      1243.1812     -5567.2795      8.5430798    
   1800000   299.07198     -9461.2358      1214.1812     -5572.6243     -7.7570264    
   1805000   299.54001     -9371.1143      1228.9601     -5463.5386     -6.1733965    
   1810000   294.28475     -9373.7028      1225.9351     -5516.1468      13.539029    
   1815000   296.29653     -9386.5393      1222.317      -5514.6113      22.594166    
   1820000   297.1298      -9497.1387      1203.0532     -5637.023      -5.3861422    
   1825000   290.96551     -9369.5154      1279.5594     -5488.0172      3.9432262    
   1830000   305.56128     -9454.3485      1219.1171     -5502.771      -0.45621967   
   1835000   296.68842     -9484.0727      1260.9486     -5570.0086     -14.567111    
   1840000   293.75086     -9417.1432      1262.3056     -5527.9911     -3.2810101    
   1845000   300.29797     -9380.9267      1228.435      -5467.098       26.783874    
   1850000   302.85544     -9461.5438      1209.2794     -5544.0008      5.9563916    
   1855000   300.43249     -9514.5592      1197.7521     -5630.2105      6.8533098    
   1860000   298.86176     -9472.1537      1203.4219     -5596.1814     -7.6844788    
   1865000   293.53295     -9397.503       1259.2185     -5513.3865     -18.561585    
   1870000   298.9419      -9450.1971      1221.9251     -5555.0049     -2.0949565    
   1875000   299.94832     -9365.2772      1252.3208     -5430.6894     -8.7259471    
   1880000   303.88296     -9420.3295      1241.9691     -5460.9083     -1.724313     
   1885000   302.53808     -9436.0359      1225.1126     -5505.4976      7.873459     
   1890000   310.60642     -9368.7227      1213.4982     -5377.6483     -20.587191    
   1895000   298.77249     -9483.0823      1235.8465     -5575.4837     -38.882569    
   1900000   295.13892     -9356.5951      1221.7394     -5495.5965      2.2103271    
   1905000   292.25438     -9357.71        1256.3981     -5487.8474     -5.8817001    
   1910000   306.95383     -9382.4132      1246.7047     -5390.7952      13.575805    
   1915000   293.76858     -9339.4885      1214.4978     -5497.9857     -17.734711    
   1920000   298.35169     -9337.0595      1257.2785     -5411.7918      9.2048315    
   1925000   302.0036      -9402.7554      1229.9001     -5472.2092      2.4699757    
   1930000   295.81878     -9413.8229      1256.9898     -5511.4944     -3.7330299    
   1935000   296.32742     -9457.4907      1293.3026     -5514.3008     -17.060647    
   1940000   298.5208      -9443.8878      1177.873      -5596.5135      20.571508    
   1945000   299.97806     -9449.2795      1218.798      -5547.9487     -10.679005    
   1950000   298.40248     -9436.4529      1245.0166     -5522.9929     -8.5893365    
   1955000   305.04898     -9478.9849      1218.5668     -5532.5389      0.79938536   
   1960000   304.78189     -9461.9429      1236.3855     -5500.0667      17.291921    
   1965000   300.21325     -9328.5107      1245.0403     -5398.8344      6.3222582    
   1970000   297.21143     -9429.0749      1188.8052     -5582.4772     -12.630437    
   1975000   304.21925     -9419.0248      1233.6755     -5464.8899     -12.277842    
   1980000   302.33352     -9496.4723      1225.4198     -5567.4561      0.75793409   
   1985000   291.47045     -9445.2754      1258.1432     -5580.6781     -5.4788406    
   1990000   293.89728     -9422.3167      1196.6463     -5597.5146     -5.9974119    
   1995000   302.48746     -9415.1081      1268.7983     -5441.3368      32.831295    
   2000000   308.68302     -9438.7315      1236.5635     -5441.7917     -28.090406    
   2005000   302.68354     -9426.6458      1229.6476     -5490.2717      6.5262501    
   2010000   303.50821     -9324.0056      1235.6325     -5374.2722      22.372323    
   2015000   301.98382     -9413.5135      1258.4685     -5454.5757     -8.3049408    
   2020000   302.0911      -9330.9213      1250.374      -5379.1187     -5.6914787    
   2025000   297.31371     -9391.0935      1248.3091     -5484.0773      7.9691966    
   2030000   303.93999     -9416.571       1317.8375     -5380.7714     -0.082896762  
   2035000   301.29381     -9445.2493      1163.2186     -5587.7318      26.996859    
   2040000   300.51245     -9449.0892      1233.7377     -5528.0399     -6.4315709    
   2045000   301.76565     -9376.0639      1274.3349     -5403.2109     -10.58322     
   2050000   301.19745     -9311.9246      1230.9665     -5387.5209     -5.1305723    
   2055000   302.29262     -9442.5716      1220.9403     -5518.4007     -2.3025264    
   2060000   299.97115     -9421.3155      1194.918      -5543.9263     -14.382885    
   2065000   301.43168     -9458.967       1246.9099     -5516.5254      49.577156    
   2070000   300.75179     -9442.9601      1244.3057     -5509.2026      25.550585    
   2075000   303.34225     -9370.0503      1281.4953     -5375.9382     -6.9875125    
   2080000   297.58202     -9436.1385      1240.629      -5534.403       17.447788    
   2085000   300.98985     -9474.7349      1280.7158     -5502.4384      9.137533     
   2090000   305.82374     -9472.1768      1231.753      -5505.6164      6.279423     
   2095000   300.48904     -9438.8485      1221.6294     -5530.1168      28.739602    
   2100000   300.54686     -9448.5869      1270.1651     -5490.8025     -9.3045018    
   2105000   297.94989     -9455.3536      1286.6791     -5504.2784      9.0568242    
   2110000   300.17528     -9508.0026      1234.0442     -5589.6619      21.953838    
   2115000   305.27694     -9485.6314      1262.8392     -5492.8745     -28.131022    
   2120000   306.01319     -9361.6031      1239.5527     -5385.5488      4.9417296    
   2125000   293.2335      -9463.0769      1215.59       -5625.2668     -0.6721149    
   2130000   309.66185     -9481.2011      1244.085      -5467.9866      14.34596     
   2135000   304.17749     -9475.1989      1290.8859     -5464.227       21.647902    
   2140000   298.38466     -9489.5506      1231.6987     -5589.5679     -0.16576576   
   2145000   299.00795     -9382.1128      1235.6625     -5472.5927     -17.327504    
   2150000   309.15171     -9498.085       1262.6525     -5470.8649      4.2146557    
   2155000   304.86123     -9357.0152      1189.8578     -5440.9571     -2.4923234    
   2160000   300.87143     -9413.632       1290.3023     -5432.8079      15.005246    
   2165000   297.09108     -9324.9457      1206.1271     -5462.1025      12.651081    
   2170000   296.2815      -9349.6068      1210.5781     -5489.5521      20.99258     
   2175000   305.38042     -9373.7109      1244.1791     -5398.6887     -14.467224    
   2180000   300.31762     -9478.2128      1232.4291     -5560.2143      0.56535827   
   2185000   302.7311      -9383.565       1208.0091     -5468.4043      9.8125275    
   2190000   299.5385      -9370.7174      1212.0819     -5480.0334     -13.154456    
   2195000   302.24433     -9435.3823      1270.6324     -5461.9512      4.5216312    
   2200000   295.12885     -9401.6387      1244.5062     -5517.9634     -15.972175    
   2205000   305.0605      -9392.2923      1225.5865     -5438.7236      11.159755    
   2210000   292.52139     -9470.4732      1230.8651     -5623.756      -19.715012    
   2215000   299.21339     -9353.9666      1241.7891     -5436.4826      11.127561    
   2220000   286.98345     -9461.6705      1242.5923     -5652.7487     -6.4942234    
   2225000   298.64584     -9385.2535      1231.1413     -5483.4927     -16.546435    
   2230000   295.17026     -9463.5285      1206.5779     -5617.4113     -6.7804873    
   2235000   300.91331     -9349.784       1234.6779     -5424.2098     -12.790946    
   2240000   301.55094     -9349.7716      1245.2578     -5407.9156      7.1162546    
   2245000   299.78546     -9436.9041      1238.4264     -5517.6672      12.54333     
   2250000   302.33585     -9398.9796      1279.392      -5415.9703     -16.837365    
   2255000   295.49041     -9370.3442      1265.4525     -5462.4893     -7.8441327    
   2260000   290.12303     -9462.1161      1234.2701     -5633.4411     -17.315015    
   2265000   300.39775     -9462.8759      1256.3957     -5520.1943     -15.640043    
   2270000   294.93803     -9406.3715      1213.3639     -5555.5448      16.107498    
   2275000   298.73223     -9384.9449      1207.2186     -5506.3342      7.4046136    
   2280000   305.0598      -9362.1057      1273.3207     -5360.8091      29.825377    
   2285000   292.76296     -9405.5058      1220.8006     -5566.6929      3.0596648    
   2290000   305.64973     -9371.9572      1286.4418     -5352.264       9.3004577    
   2295000   296.90155     -9498.2651      1232.1046     -5611.1391     -18.961336    
   2300000   298.12118     -9457.8354      1225.0113     -5566.8963     -22.604528    
   2305000   294.31941     -9499.9789      1250.9928     -5617.0553     -16.06368     
   2310000   301.38143     -9522.0912      1246.8139     -5580.1949     -12.418548    
   2315000   302.79458     -9394.4306      1223.2672     -5463.444      -14.667208    
   2320000   299.0478      -9465.6135      1193.7032     -5597.6962      13.003522    
   2325000   302.59362     -9518.0904      1247.0923     -5565.0758     -7.4655379    
   2330000   308.63535     -9467.7376      1268.3134     -5439.4741     -13.886626    
   2335000   294.8793      -9524.5655      1262.3002     -5625.3277      2.8818643    
   2340000   299.02393     -9394.0589      1253.0405     -5467.0178      18.496108    
   2345000   305.99821     -9431.2278      1241.8268     -5453.0334     -2.8373857    
   2350000   289.01926     -9496.5374      1240.9039     -5671.099      -11.525813    
   2355000   296.17567     -9428.1771      1206.2239     -5573.423       23.778513    
   2360000   298.75518     -9423.8344      1178.2925     -5573.9445      12.993462    
   2365000   300.5421      -9406.625       1263.1724     -5455.8758      12.747358    
   2370000   300.71678     -9478.3044      1230.8905     -5558.2751     -10.724486    
   2375000   292.25362     -9427.289       1204.6464     -5609.1851      16.477564    
   2380000   301.58357     -9455.9409      1274.7585     -5484.2924     -6.6986989    
   2385000   302.27632     -9436.9823      1233.2748     -5500.6226     -21.590452    
   2390000   299.86516     -9362.6059      1274.4629     -5406.6199      21.32974     
   2395000   301.99494     -9349.8918      1245.2539     -5404.0692      7.5374017    
   2400000   289.28295     -9421.4632      1205.0635     -5629.5071      4.7966785    
   2405000   302.72424     -9421.5436      1206.3462     -5508.107       9.8567947    
   2410000   294.43292     -9437.3942      1202.917      -5601.5314     -4.6729388    
   2415000   294.81126     -9363.5604      1233.6618     -5493.5695     -5.7122023    
   2420000   297.45734     -9496.0266      1258.8051     -5577.23        3.3291994    
   2425000   304.96084     -9447.6283      1264.8483     -5455.689       6.4918268    
   2430000   292.36159     -9477.7383      1262.4981     -5600.8171      21.353796    
   2435000   295.80028     -9435.3642      1252.9958     -5537.195       5.9512951    
   2440000   307.91186     -9472.8982      1245.529      -5473.8888      0.099423281  
   2445000   305.01715     -9419.4972      1228.5708     -5463.332      -2.9404932    
   2450000   302.38722     -9499.4606      1251.0575     -5544.3265     -11.392455    
   2455000   308.99134     -9469.2253      1243.3118     -5462.78        21.427851    
   2460000   300.92855     -9385.242       1263.9349     -5430.2745     -22.275589    
   2465000   296.52355     -9429.4721      1252.644      -5525.187       21.510051    
   2470000   299.04956     -9385.8099      1220.9167     -5490.6634      18.857945    
   2475000   307.35104     -9437.7262      1221.4805     -5467.7806     -19.108313    
   2480000   308.32189     -9363.6671      1209.0144     -5397.5057     -16.777743    
   2485000   306.80145     -9518.2974      1255.2478     -5519.4991     -6.3653548    
   2490000   301.20693     -9433.3291      1250.6812     -5489.126      -15.463023    
   2495000   301.12301     -9400.2131      1201.4949     -5505.9467      0.25585564   
   2500000   300.99789     -9410.4737      1252.8806     -5465.9405      20.667312    
   2505000   303.3446      -9415.122       1287.0793     -5415.4049      0.95505384   
   2510000   296.4982      -9379.0887      1269.9671     -5457.7072     -15.987209    
   2515000   303.33405     -9409.9963      1229.0806     -5468.3722     -15.718551    
   2520000   298.44056     -9470.4219      1252.8629     -5548.7751     -10.50044     
   2525000   303.24929     -9466.5276      1216.4446     -5538.2974     -10.297361    
   2530000   300.35908     -9367.9029      1268.0814     -5413.8815     -18.807206    
   2535000   303.82579     -9461.5789      1240.7393     -5503.8988      4.0998076    
   2540000   294.95866     -9390.5726      1251.9485     -5500.9769     -0.41954367   
   2545000   300.66085     -9395.9087      1232.1527     -5475.1174     -6.3893827    
   2550000   301.34335     -9419.1105      1215.1706     -5509.198       2.0812314    
   2555000   304.05632     -9305.4273      1258.3316     -5328.0933      3.2123163    
   2560000   296.22685     -9352.143       1233.0439     -5470.1112      0.92240407   
   2565000   298.58932     -9409.4533      1217.8176     -5521.5216     -8.7983689    
   2570000   299.06305     -9463.7901      1220.5149     -5568.9248      1.309012     
   2575000   295.05124     -9426.6862      1246.6323     -5541.5788     -7.0423623    
   2580000   299.85845     -9412.2486      1219.8784     -5510.907       10.639418    
   2585000   302.1236      -9418.8376      1239.0746     -5478.0438      25.705653    
   2590000   303.19554     -9359.4075      1263.1001     -5385.0025     -5.609428     
   2595000   302.51222     -9358.9057      1225.7611     -5427.9502     -0.99088096   
   2600000   296.75394     -9489.1959      1282.1902     -5553.3043     -8.2946908    
   2605000   293.42149     -9403.7743      1208.0538     -5571.8193      20.197671    
   2610000   299.82408     -9426.713       1239.4189     -5506.1382     -7.9555705    
   2615000   295.97592     -9447.6648      1240.4525     -5560.4684     -18.297557    
   2620000   299.08819     -9403.3537      1215.8801     -5512.8983      7.7018995    
   2625000   292.68347     -9450.656       1225.49       -5607.8644     -2.2595435    
   2630000   301.24608     -9369.7464      1234.6552     -5441.2192     -11.64529     
   2635000   311.06893     -9363.4779      1192.8336     -5388.9321      2.5691797    
   2640000   299.83982     -9466.3313      1252.1799     -5532.8548     -6.2450952    
   2645000   298.12362     -9391.5223      1228.9738     -5496.5989      13.910031    
   2650000   310.57913     -9359.8919      1262.6682     -5319.8915      7.2611139    
   2655000   300.04572     -9402.8109      1222.5934     -5497.0796     -5.3599269    
   2660000   302.55561     -9425.1185      1239.6597     -5479.8764      16.040168    
   2665000   297.50922     -9481.3449      1240.5207     -5580.3688     -10.515645    
   2670000   298.39204     -9483.3642      1232.3441     -5582.6702      15.116433    
   2675000   299.021       -9411.9394      1272.6545     -5465.3104     -8.0185983    
   2680000   297.31845     -9434.073       1202.3154     -5573.0081     -7.6590176    
   2685000   302.67108     -9384.9518      1211.427      -5466.9098      3.3450057    
   2690000   299.62256     -9383.1115      1262.2221     -5441.5356     -16.145152    
   2695000   294.60346     -9387.9408      1229.3744     -5524.0955     -11.798341    
   2700000   294.51632     -9349.1926      1283.3536     -5432.1474      18.189296    
   2705000   304.31927     -9485.8791      1246.4333     -5518.092       0.86407196   
   2710000   312.10286     -9348.2953      1232.1322     -5325.205       2.276894     
   2715000   299.32604     -9452.6477      1246.0381     -5529.9073     -21.378759    
   2720000   306.08154     -9356.3276      1219.6024     -5399.6124     -3.7917756    
   2725000   309.43545     -9330.7531      1218.0902     -5345.558      -1.1329751    
   2730000   295.07562     -9432.4177      1241.6458     -5552.0787     -13.561522    
   2735000   291.46152     -9449.6704      1245.079      -5598.2171     -2.7665385    
   2740000   302.80137     -9400.3642      1221.6171     -5470.967       1.593775     
   2745000   300.96833     -9460.5424      1210.7719     -5558.3822     -29.637948    
   2750000   294.91029     -9413.2162      1266.6011     -5509.4003     -4.8312322    
   2755000   305.12315     -9436.8953      1227.8705     -5480.4823      6.0130929    
   2760000   300.75043     -9501.9529      1184.2958     -5628.2174     -27.009099    
   2765000   293.24467     -9403.6334      1208.4682     -5572.8452     -0.40484492   
   2770000   309.88351     -9396.0918      1253.483      -5371.4971     -7.167374     
   2775000   299.84123     -9417.3248      1194.178      -5541.8376      24.179302    
   2780000   294.89627     -9355.203       1261.2421     -5456.8716      2.5035665    
   2785000   289.51739     -9474.3769      1222.5747     -5662.8132     -3.9816063    
   2790000   297.06524     -9486.7297      1255.5944     -5574.6501     -25.575144    
   2795000   306.49331     -9456.3633      1196.2679     -5519.3005      8.363527     
   2800000   304.81351     -9510.3322      1265.7221     -5518.8366     -21.809874    
   2805000   294.90284     -9448.7577      1279.2684     -5532.3413     -3.7140703    
   2810000   295.39738     -9470.1009      1230.9528     -5597.5777      9.0895247    
   2815000   296.75895     -9390.5438      1246.9845     -5489.8131     -7.9329225    
   2820000   307.74633     -9434.0567      1222.3277     -5459.729      -1.4588465    
   2825000   303.71323     -9415.4615      1301.1518     -5398.3753      5.2118097    
   2830000   299.00028     -9388.8369      1239.1152     -5475.9326     -3.4906315    
   2835000   307.90582     -9423.1918      1245.4797     -5424.2858      6.4100757    
   2840000   295.9477      -9335.3809      1215.0051     -5473.8841      17.562562    
   2845000   296.69983     -9366.8857      1258.0099     -5455.6583      3.988451     
   2850000   298.27966     -9457.1737      1211.9525     -5577.8761     -40.880458    
   2855000   303.18022     -9504.5793      1240.9461     -5552.4652      5.2389029    
   2860000   297.21733     -9498.277       1228.7908     -5611.641       8.7568572    
   2865000   298.90869     -9465.2885      1232.3389     -5559.9795     -12.652523    
   2870000   305.77575     -9532.6073      1270.0079     -5528.2212      0.54405751   
   2875000   305.7261      -9573.7705      1270.3925     -5569.4437      0.85859922   
   2880000   303.41886     -9563.009       1298.7945     -5550.9126     -9.3268231    
   2885000   292.71437     -9581.4224      1213.8781     -5749.9665     -16.261799    
   2890000   300.97892     -9640.9978      1249.3875     -5700.1273      3.4378101    
   2895000   301.47514     -9675.9959      1287.8265     -5692.249       6.6998081    
   2900000   304.71646     -9654.3133      1274.4382     -5654.9695      9.5694724    
   2905000   301.08384     -9642.8855      1264.6598     -5685.8045     -5.8259699    
   2910000   293.88738     -9622.5941      1277.0276     -5717.4992     -2.4580297    
   2915000   303.60713     -9693.8933      1194.507      -5784.4008      15.538559    
   2920000   297.67409     -9737.775       1195.8374     -5880.0078      41.541215    
   2925000   297.33607     -9711.9975      1219.4238     -5833.6666     -3.6300343    
   2930000   294.72044     -9739.5418      1223.1552     -5880.8697      5.2182978    
   2935000   303.43993     -9733.6733      1202.6325     -5817.5505     -30.388387    
   2940000   298.87257     -9765.9521      1212.1607     -5881.1442     -4.931745     
   2945000   296.48406     -9716.9629      1208.0531     -5857.6218     -9.0790365    
   2950000   297.18049     -9760.2435      1158.8432     -5943.8845     -0.46086794   
   2955000   295.82453     -9740.4579      1238.2975     -5856.7702      16.651501    
   2960000   304.31165     -9771.2226      1264.5891     -5785.3478     -5.5881776    
   2965000   301.66715     -9724.639       1226.3224     -5800.6792      12.15179     
   2970000   298.68411     -9691.4479      1234.5184     -5785.9678     -4.7945644    
   2975000   300.19765     -9768.3463      1243.232      -5840.6177      13.072976    
   2980000   307.8058      -9747.8098      1266.2077     -5729.0702     -5.732435     
   2985000   299.35093     -9718.6651      1242.7783     -5798.962       14.765964    
   2990000   301.27486     -9712.1535      1239.911      -5778.1131     -32.520872    
   2995000   299.96244     -9841.3539      1293.5446     -5865.4161      2.2945991    
   3000000   297.62639     -9783.6006      1249.5584     -5872.539      -22.655718    
   3005000   299.12425     -9812.6526      1158.7135     -5979.0414     -7.5626193    
   3010000   300.71175     -9778.5734      1221.9464     -5867.5332     -1.7333386    
   3015000   297.78955     -9769.2688      1197.0285     -5909.2781     -12.275292    
   3020000   299.25331     -9808.3798      1224.2536     -5908.0744      2.5699527    
   3025000   302.8348      -9749.5424      1270.6618     -5770.8016      5.7432984    
   3030000   297.87451     -9712.5473      1249.1919     -5799.6334     -38.287249    
   3035000   301.15361     -9710.5412      1221.5183     -5795.9778      26.047111    
   3040000   300.69527     -9732.6149      1251.3038     -5792.3646     -23.829789    
   3045000   299.42931     -9744.4849      1211.3157     -5855.5435      23.961475    
   3050000   297.32562     -9765.4309      1244.4318     -5862.1855     -15.055353    
   3055000   299.48274     -9756.243       1182.4058     -5895.7336      26.49252     
   3060000   313.51383     -9769.6859      1234.4109     -5731.6994      10.795591    
   3065000   303.95685     -9743.4538      1243.8075     -5781.5335     -2.9927942    
   3070000   300.57301     -9776.0116      1258.7714     -5829.3871     -23.646074    
   3075000   295.22297     -9743.6584      1225.3378     -5878.3098     -18.092503    
   3080000   305.02761     -9721.2199      1210.8345     -5782.6974     -8.915262     
   3085000   287.86124     -9638.2882      1190.33       -5873.7792     -17.077792    
   3090000   299.5821      -9697.4963      1273.2375     -5745.2668      8.1178496    
   3095000   292.84106     -9716.9024      1231.0479     -5867.1437      3.0641552    
   3100000   298.293       -9773.8667      1272.3702     -5834.0322     -15.677663    
   3105000   295.09293     -9707.941       1198.2931     -5870.8         16.460207    
   3110000   299.37579     -9762.1679      1196.972      -5888.0488     -0.8731444    
   3115000   303.60612     -9759.3199      1170.7805     -5873.5628     -18.516998    
   3120000   296.8936      -9728.2993      1223.6868     -5849.6621      19.966503    
   3125000   304.50119     -9730.3388      1198.2593     -5809.0989      22.242943    
   3130000   303.45201     -9790.1435      1209.1352     -5867.4099      1.6540217    
   3135000   297.77328     -9737.6267      1176.5448     -5898.2651     -14.375523    
   3140000   305.12959     -9766.2511      1235.7559     -5801.8952      15.438144    
   3145000   304.03664     -9688.6177      1197.9125     -5771.8788      5.3842594    
   3150000   303.26944     -9745.0116      1199.7023     -5833.3435     -5.3522339    
   3155000   296.73205     -9817.2197      1226.5003     -5937.2137      18.394843    
   3160000   301.78373     -9731.9973      1281.112      -5752.2054     -1.8885707    
   3165000   292.74857     -9736.7417      1212.4011     -5906.457       12.240001    
   3170000   303.81501     -9760.1629      1208.0659     -5835.2525     -18.431625    
   3175000   310.58512     -9748.0955      1252.7983     -5717.9114     -7.2215551    
   3180000   301.96044     -9752.512       1235.5065     -5816.7453     -2.1674473    
   3185000   294.57236     -9666.8001      1219.4607     -5813.1467      19.224592    
   3190000   298.97334     -9742.6218      1192.2291     -5876.8445      4.9508227    
   3195000   300.67665     -9783.1476      1221.9279     -5872.4397     -12.327364    
   3200000   313.38686     -9811.7755      1242.7478     -5766.5876      26.225476    
   3205000   293.23646     -9748.1481      1217.8019     -5908.0997      4.4980707    
   3210000   294.07714     -9748.8001      1241.8381     -5877.1977     -17.696168    
   3215000   306.0722      -9757.5568      1245.7657     -5774.7619     -6.2115152    
   3220000   300.02797     -9680.5678      1195.8073     -5801.7814      0.68018251   
   3225000   303.4368      -9798.5318      1206.372      -5878.6975     -1.6931881    
   3230000   303.32914     -9774.8466      1246.3104     -5816.0366     -20.129952    
   3235000   296.46447     -9732.2802      1292.4288     -5788.7386      13.899077    
   3240000   301.25779     -9827.9482      1178.339      -5955.6324     -11.930351    
   3245000   309.95592     -9617.2706      1245.7462     -5599.7652     -6.0196742    
   3250000   296.75112     -9649.1007      1255.1302     -5740.2943     -31.179556    
   3255000   302.41602     -9677.8611      1198.8435     -5774.6834     -4.1886033    
   3260000   297.17422     -9773.6459      1229.7382     -5886.448      -16.730349    
   3265000   299.15921     -9716.9806      1271.504      -5770.2662     -14.322145    
   3270000   304.74694     -9718.2779      1240.4446     -5752.6551     -10.189024    
   3275000   299.71004     -9786.1045      1228.2441     -5877.7243     -15.659083    
   3280000   300.1508      -9785.6104      1229.2806     -5872.2522      29.825452    
   3285000   300.02481     -9823.644       1221.5838     -5919.1093      13.707648    
   3290000   305.98993     -9811.2892      1177.4136     -5897.5821      5.960302     
   3295000   294.14517     -9743.0082      1250.9395     -5861.696       19.949416    
   3300000   299.81101     -9726.9461      1168.1787     -5877.7284      0.58024089   
   3305000   296.46132     -9767.3049      1247.0067     -5869.2136      3.7424154    
   3310000   297.97597     -9740.0638      1237.9902     -5837.4443      5.2876208    
   3315000   296.60628     -9731.6159      1259.0088     -5820.2262      1.9554985    
   3320000   301.7416      -9759.0438      1204.0645     -5856.6761     -0.58941039   
   3325000   304.65898     -9821.4622      1203.5242     -5893.5463     -8.4708741    
   3330000   297.53556     -9744.8429      1220.9686     -5863.1833     -22.774339    
   3335000   296.05887     -9807.4843      1216.4522     -5943.5464      11.182716    
   3340000   304.3886      -9783.2987      1180.1825     -5881.1425     -12.576694    
   3345000   309.53381     -9740.3088      1227.4064     -5744.9179     -32.431829    
   3350000   292.03636     -9788.0942      1255.2062     -5921.3733     -9.4640064    
   3355000   301.18779     -9736.3579      1230.7058     -5812.3013     -12.362746    
   3360000   310.45193     -9743.5038      1248.0048     -5719.3044      24.726336    
   3365000   308.14541     -9720.7883      1238.7731     -5726.4464     -28.656224    
   3370000   295.90185     -9808.0469      1206.8249     -5955.1403     -1.4974873    
   3375000   294.59905     -9724.3062      1265.7124     -5824.1623      5.0924835    
   3380000   304.30347     -9714.6167      1199.3419     -5794.0623     -0.84921986   
   3385000   300.28805     -9747.0043      1261.2031     -5800.4963     -17.657001    
   3390000   302.45232     -9691.6139      1226.7296     -5760.2256     -1.5151246    
   3395000   297.42466     -9710.1184      1216.853      -5833.5661     -4.1698394    
   3400000   300.72949     -9722.089       1213.4855     -5819.3511     -4.0979049    
   3405000   303.10648     -9798.9581      1244.5287     -5843.9208     -32.873049    
   3410000   297.43213     -9772.3873      1181.6432     -5930.9781      16.994341    
   3415000   302.1892      -9826.8103      1177.9825     -5946.5219      14.82397     
   3420000   295.88977     -9753.4792      1266.7919     -5840.7136     -7.9508689    
   3425000   296.9764      -9764.7925      1210.8201     -5898.2817      11.678798    
   3430000   302.93695     -9780.1963      1213.1634     -5858.0404     -3.8943738    
   3435000   290.59916     -9663.353       1251.5363     -5813.154       13.482674    
   3440000   295.47326     -9760.9601      1257.6709     -5861.0403     -3.9461157    
   3445000   303.29493     -9744.4288      1214.7222     -5817.5129     -22.581332    
   3450000   295.43947     -9751.8749      1195.4499     -5914.4782     -3.0289785    
   3455000   304.23886     -9756.8072      1237.1577     -5799.0147      4.7753048    
   3460000   299.98205     -9709.9844      1201.3542     -5826.0616     -0.97658688   
   3465000   297.56332     -9652.7291      1254.8251     -5736.9649      16.695128    
   3470000   304.07112     -9789.6434      1223.6306     -5846.8781     -1.5410629    
   3475000   303.86666     -9704.4171      1246.4734     -5740.6373      7.5489341    
   3480000   300.54315     -9700.8136      1251.7351     -5761.4924     -8.264546     
   3485000   302.42757     -9708.5395      1259.1606     -5744.9415     -8.9116077    
   3490000   305.4395      -9746.7133      1181.7203     -5833.6215     -10.572561    
   3495000   298.20551     -9751.5201      1211.2504     -5873.5877     -4.7088122    
   3500000   303.17593     -9664.6981      1200.8441     -5752.7245      11.228749    
   3505000   301.19392     -9813.7123      1202.7807     -5917.5259      13.461783    
   3510000   296.80778     -9805.9732      1207.4938     -5944.2966      26.356103    
   3515000   295.04892     -9734.3389      1208.4336     -5887.4509      2.0505708    
   3520000   298.2006      -9775.4605      1185.4333     -5923.3891      1.0385928    
   3525000   288.62961     -9762.9478      1237.9168     -5943.9809     -7.2803406    
   3530000   309.36076     -9726.7594      1195.4123     -5764.9101     -1.6857732    
   3535000   300.06415     -9780.6307      1205.7065     -5891.6216      43.405003    
   3540000   299.60161     -9770.6665      1188.777      -5902.7231      29.158374    
   3545000   304.87285     -9787.6613      1185.8978     -5875.4593     -11.234942    
   3550000   294.17227     -9743.3149      1232.2252     -5880.4747     -12.536581    
   3555000   305.47462     -9707.2985      1207.1361     -5768.4769      19.176487    
   3560000   300.26628     -9654.8214      1202.4207     -5767.2904     -7.7447796    
   3565000   292.89911     -9684.0436      1241.0761     -5823.7377      4.4886831    
   3570000   301.63573     -9756.6812      1247.9778     -5811.347      -0.59931972   
   3575000   303.16675     -9733.4264      1164.7959     -5857.583       2.6046778    
   3580000   302.37644     -9667.1335      1253.5559     -5709.5974     -8.0226871    
   3585000   291.02565     -9708.4981      1213.7582     -5892.2633     -21.518926    
   3590000   297.68199     -9734.8476      1214.4663     -5858.3809      3.3196734    
   3595000   301.45314     -9711.4601      1246.5503     -5769.1862     -0.68787381   
   3600000   300.91111     -9693.4841      1214.9409     -5787.6667     -29.566139    
   3605000   296.5368      -9728.6147      1240.8        -5836.055       2.9716539    
   3610000   299.21126     -9748.2305      1224.9383     -5847.6164      8.1185896    
   3615000   298.81322     -9717.2147      1263.8107     -5781.2878      9.3391454    
   3620000   297.72303     -9693.653       1218.1324     -5813.1532      5.8876143    
   3625000   297.37245     -9762.263       1209.6681     -5893.3625     -4.5540434    
   3630000   299.58885     -9665.9658      1211.7094     -5775.2041     -15.055896    
   3635000   297.00713     -9703.2707      1221.1237     -5826.1815      3.2005497    
   3640000   301.02486     -9692.3904      1180.2554     -5820.2411      14.181963    
   3645000   302.40797     -9830.1552      1207.767      -5918.1261     -8.2238708    
   3650000   300.00416     -9764.7949      1189.7791     -5892.2495     -16.345773    
   3655000   300.46534     -9794.8912      1202.3718     -5905.6291     -3.892412     
   3660000   301.14908     -9683.2199      1205.6825     -5784.5327     -12.385492    
   3665000   294.73005     -9681.8324      1194.0446     -5852.185      -11.313499    
   3670000   301.97602     -9837.5145      1173.0516     -5964.0634      2.5691767    
   3675000   305.26449     -9754.2613      1206.3874     -5818.0674      14.113432    
   3680000   302.66238     -9792.4121      1240.3044     -5845.5705     -13.501038    
   3685000   303.68629     -9821.4011      1223.7219     -5881.9857      4.6165729    
   3690000   304.2361      -9753.0454      1190.7144     -5841.721      -7.3290151    
   3695000   307.35191     -9788.8485      1205.4326     -5834.9429      9.5044057    
   3700000   303.65573     -9693.5323      1191.9659     -5786.1462      15.250423    
   3705000   294.48081     -9748.9703      1223.0575     -5892.5387      4.9225544    
   3710000   303.79246     -9812.1848      1212.6888     -5882.8531      17.43612     
   3715000   308.36851     -9744.0343      1193.5832     -5792.8873     -1.9612905    
   3720000   306.78496     -9779.0047      1236.0914     -5799.5103     -12.859859    
   3725000   300.7908      -9888.6806      1196.0062     -6002.8738     -8.0788463    
   3730000   301.89497     -9750.0322      1225.5012     -5824.8563     -11.046526    
   3735000   303.6735      -9785.6706      1215.4729     -5854.6186     -12.906952    
   3740000   304.92886     -9752.7365      1172.8538     -5853.0776      10.517625    
   3745000   297.33975     -9804.8449      1257.3283     -5888.5766     -31.666054    
   3750000   298.74044     -9806.814       1203.5245     -5931.824      -1.953359     
   3755000   300.93876     -9727.7773      1240.0264     -5796.627       29.271781    
   3760000   297.89703     -9733.2307      1221.2495     -5848.0579      3.2227944    
   3765000   294.30411     -9876.4566      1233.2161     -6011.4465     -14.18604     
   3770000   302.09955     -9683.055       1214.6063     -5766.9446      7.0060227    
   3775000   299.0036      -9665.8521      1183.7743     -5808.2589      19.889405    
   3780000   298.26042     -9783.3717      1225.0533     -5891.1454     -24.086992    
   3785000   293.31642     -9706.0032      1218.0019     -5865.0397     -22.497225    
   3790000   296.33724     -9775.3989      1199.8431     -5925.5807     -13.652472    
   3795000   294.84469     -9713.1841      1213.6756     -5862.8804     -11.830223    
   3800000   297.15626     -9744.8292      1259.4649     -5828.0653      2.1686812    
   3805000   296.89517     -9692.4706      1203.5173     -5833.989       30.866402    
   3810000   304.11496     -9797.5478      1219.8483     -5858.1727      10.833595    
   3815000   298.68798     -9694.158       1250.4751     -5772.6865     -13.558417    
   3820000   296.83649     -9627.6122      1195.7647     -5777.408       14.473986    
   3825000   297.432       -9791.9289      1281.167      -5850.9971     -34.272589    
   3830000   304.65489     -9815.2843      1228.8287     -5862.1005      14.669789    
   3835000   291.03124     -9785.8049      1225.4177     -5957.8606     -18.096296    
   3840000   299.1575      -9847.7013      1233.7692     -5938.737       8.2533525    
   3845000   293.23307     -9801.238       1175.3289     -6003.6928     -22.268629    
   3850000   300.88        -9733.998       1228.3851     -5815.0146      16.069122    
   3855000   301.67627     -9787.0387      1214.3972     -5874.9225      21.635884    
   3860000   296.81637     -9726.5035      1278.1929     -5794.0511     -20.72586     
   3865000   303.6217      -9758.0414      1267.3298     -5775.5958      4.6269064    
   3870000   296.7859      -9750.3202      1195.6799     -5900.6531      6.5493385    
   3875000   292.15807     -9820.5548      1205.43       -6002.5217     -22.479398    
   3880000   300.23287     -9798.8457      1298.8874     -5815.1468     -19.124436    
   3885000   298.61846     -9783.5972      1176.2341     -5936.9883     -11.34996     
   3890000   295.37327     -9781.0242      1240.3058     -5899.3635      29.465725    
   3895000   300.20179     -9757.0314      1203.7287     -5868.7692     -15.528663    
   3900000   304.88284     -9678.9073      1247.2167     -5705.2971     -4.0488597    
   3905000   301.0699      -9728.4845      1203.6397     -5832.5483      15.913869    
   3910000   300.4402      -9773.6205      1175.1192     -5911.8358      4.606396     
   3915000   307.64847     -9774.6884      1202.5276     -5821.0359      1.0324923    
   3920000   295.25457     -9758.8358      1253.075      -5865.4675      14.154912    
   3925000   299.0129      -9716.649       1213.1321     -5829.6149     -17.577099    
   3930000   297.25666     -9680.9837      1241.1235     -5781.6632     -9.3637318    
   3935000   295.71002     -9717.8893      1197.7575     -5875.7657     -14.76197     
   3940000   306.91203     -9752.5159      1243.9183     -5764.0583     -16.571261    
   3945000   297.57422     -9758.5814      1252.8532     -5844.6916     -11.572736    
   3950000   300.88993     -9771.7999      1228.5519     -5852.5608     -8.249214     
   3955000   293.664       -9705.8392      1226.0951     -5853.6743     -6.7658524    
   3960000   298.89277     -9751.0969      1237.5772     -5840.6919     -16.253265    
   3965000   296.91429     -9785.9007      1216.6538     -5914.1116     -11.19564     
   3970000   295.99872     -9754.4539      1230.2617     -5877.2443      13.369026    
   3975000   303.26383     -9772.2115      1196.1969     -5864.099       14.64303     
   3980000   300.37362     -9723.3682      1227.6632     -5809.6349     -2.1171058    
   3985000   306.70861     -9724.5585      1204.6446     -5777.1936     -5.2695184    
   3990000   306.64703     -9821.5437      1194.9053     -5884.4687      18.678073    
   3995000   298.48916     -9809.3424      1268.622      -5871.502      -6.2324305    
   4000000   297.48857     -9729.0438      1198.2472     -5870.5258      0.14782803   
   4005000   295.05925     -9762.5482      1205.901      -5918.1004      2.5471352    
   4010000   297.41431     -9710.1677      1220.3993     -5830.1617     -6.3585686    
   4015000   299.35382     -9767.8941      1215.2879     -5875.6556      9.2308602    
   4020000   295.41235     -9749.5222      1206.1743     -5901.6436      11.64049     
   4025000   294.08299     -9735.8129      1233.1618     -5872.8344      0.66387614   
   4030000   299.93255     -9809.065       1215.1929     -5911.7463     -1.6233054    
   4035000   300.29626     -9852.67        1225.9127     -5941.379      -20.755453    
   4040000   306.9951      -9848.4573      1193.7965     -5909.3786     -10.644051    
   4045000   299.04699     -9805.6183      1188.7583     -5942.6532     -14.215098    
   4050000   308.99332     -9810.5141      1225.7116     -5821.6513      16.191914    
   4055000   294.49658     -9764.278       1212.7389     -5918.0241     -7.2410509    
   4060000   300.81252     -9792.3935      1230.4988     -5871.8997      0.75710007   
   4065000   291.74801     -9745.8006      1206.8782     -5929.9862     -17.682882    
   4070000   297.1822      -9697.9409      1231.7037     -5808.7061      27.271983    
   4075000   296.4535      -9771.2001      1269.054      -5851.1314      6.2851229    
   4080000   306.5705      -9678.1347      1224.8228     -5711.8265      9.0267559    
   4085000   298.20948     -9636.2367      1194.4784     -5775.0408      16.568155    
   4090000   299.38294     -9710.4316      1192.6202     -5840.6003     -8.168984     
   4095000   305.06501     -9762.4829      1255.7353     -5778.7251     -19.332946    
   4100000   303.63529     -9759.4808      1213.7798     -5830.4636      6.79806      
   4105000   299.30949     -9738.3905      1222.9281     -5838.9082      1.6614353    
   4110000   303.15682     -9836.1262      1225.5201     -5899.6474     -17.105057    
   4115000   307.63911     -9785.7586      1236.4887     -5798.2286      2.6931455    
   4120000   299.82676     -9704.3038      1202.2913     -5820.8328     -0.58275253   
   4125000   294.23862     -9733.6061      1245.9932     -5856.4046     -0.84289253   
   4130000   299.90053     -9735.6181      1187.8272     -5865.9514     -7.9414832    
   4135000   304.2705      -9717.7298      1193.1814     -5803.6308     -21.53004     
   4140000   293.15715     -9828.9989      1230.2934     -5977.1682     -13.836134    
   4145000   292.56362     -9848.5827      1191.9425     -6040.4104      11.552992    
   4150000   300.78388     -9753.7333      1219.1598     -5844.8346     -23.504488    
   4155000   296.9362      -9726.9123      1220.8442     -5850.7368     -26.760869    
   4160000   296.19236     -9774.4988      1227.01       -5898.8094      23.884505    
   4165000   293.99509     -9787.3605      1213.527      -5944.8029     -10.979572    
   4170000   303.59744     -9795.2483      1260.999      -5819.3503      2.4416892    
   4175000   295.59975     -9695.4289      1209.0082     -5843.0406      11.769786    
   4180000   298.39787     -9757.3188      1266.1554     -5822.7613      7.4945651    
   4185000   308.83603     -9766.7409      1239.622      -5765.3743      7.4518725    
   4190000   301.5495      -9785.7296      1231.4163     -5857.7279      2.2656407    
   4195000   301.41103     -9765.471       1192.4813     -5877.6426     -3.1009195    
   4200000   299.70654     -9728.4931      1236.2897     -5812.0986     -8.2579632    
   4205000   302.89943     -9772.4164      1184.625      -5879.1344     -6.3252435    
   4210000   294.45792     -9753.809       1184.8913     -5935.7484     -15.849473    
   4215000   293.19357     -9725.0468      1234.5861     -5868.5977     -22.339817    
   4220000   308.15445     -9698.4673      1199.1614     -5743.6563     -14.923643    
   4225000   300.23457     -9845.1958      1227.6476     -5932.7214     -33.011111    
   4230000   298.91662     -9834.6079      1183.6958     -5977.8711      4.2565573    
   4235000   306.73963     -9866.6971      1236.1603     -5887.539      -7.9621132    
   4240000   300.38606     -9759.8023      1181.8608     -5891.7602     -3.6095457    
   4245000   294.17034     -9748.2019      1220.3972     -5897.207       25.935389    
   4250000   299.03646     -9681.2209      1199.8033     -5807.3049     -3.6391352    
   4255000   290.20054     -9696.1998      1217.2049     -5883.8969     -9.1645486    
   4260000   297.2104      -9726.1016      1225.4304     -5842.8879     -6.5292416    
   4265000   301.63032     -9777.797       1216.5743     -5863.9146     -23.982024    
   4270000   305.7723      -9720.0349      1242.8391     -5742.8483     -6.0580337    
   4275000   302.89075     -9773.5828      1254.4904     -5810.513       12.854627    
   4280000   303.5465      -9798.1148      1213.8235     -5869.848      -11.964705    
   4285000   303.22752     -9721.8782      1231.864      -5778.4232      16.834032    
   4290000   303.16408     -9768.1956      1186.5033     -5870.6687     -6.2729831    
   4295000   302.17004     -9692.4156      1210.451      -5779.8301     -7.9297564    
   4300000   304.80327     -9745.287       1176.4581     -5843.147      -2.5177996    
   4305000   299.672       -9811.581       1200.4453     -5931.3398      7.6050622    
   4310000   307.60577     -9812.629       1236.1376     -5825.7484      6.8607271    
   4315000   305.24085     -9694.0039      1243.9817     -5720.4272      22.40063     
   4320000   301.54873     -9711.3825      1202.277      -5812.5271     -16.847413    
   4325000   302.54351     -9782.2454      1222.9905     -5853.7806     -0.87442197   
   4330000   306.25877     -9814.6323      1248.1061     -5827.8286      13.383855    
   4335000   296.91567     -9833.4334      1229.5782     -5948.7075     -12.866165    
   4340000   301.8405      -9652.5074      1224.9979     -5728.322      -6.8978755    
   4345000   302.91017     -9692.7299      1276.8704     -5707.1065     -22.198581    
   4350000   305.86769     -9753.5615      1245.82       -5772.541      -2.1442618    
   4355000   300.76323     -9701.1196      1241.9173     -5769.6481      8.5991869    
   4360000   300.34772     -9790.6376      1198.482      -5906.3171      17.208007    
   4365000   289.59126     -9768.8607      1184.0221     -5995.189       0.52206785   
   4370000   295.85458     -9806.1371      1208.3743     -5952.1039      9.6533268    
   4375000   303.47768     -9883.2946      1211.8126     -5957.654       5.5381712    
   4380000   297.72115     -9831.1632      1176.6695     -5992.1431      8.3323949    
   4385000   303.7429      -9661.8084      1211.1622     -5734.4465     -18.911949    
   4390000   295.94188     -9823.5593      1267.2348     -5909.8849      10.468804    
   4395000   301.36543     -9718.8665      1188.63       -5835.2972      5.2515259    
   4400000   300.34316     -9776.989       1249.9833     -5841.2079     -10.040628    
   4405000   303.48515     -9753.0073      1217.3074     -5821.8051     -10.175126    
   4410000   301.39246     -9793.8467      1228.6215     -5870.0442     -27.224948    
   4415000   298.99426     -9746.1359      1214.5287     -5857.8719     -5.018604     
   4420000   294.66061     -9757.8424      1203.5171     -5919.3433      4.3381654    
   4425000   302.79557     -9744.6155      1187.1012     -5849.7861     -6.196331     
   4430000   296.08608     -9786.0341      1265.5744     -5872.7306      18.822473    
   4435000   306.04914     -9644.0919      1249.8649     -5657.4039      11.577721    
   4440000   307.58203     -9855.5065      1216.901      -5888.0747      9.5571194    
   4445000   300.45006     -9767.7704      1166.577      -5914.4397      1.9103502    
   4450000   291.50629     -9717.9578      1204.9551     -5906.228      -32.530026    
   4455000   302.67209     -9680.0184      1248.2372     -5725.1572     -2.3558461    
   4460000   294.49866     -9815.8069      1216.9867     -5965.2865     -4.6622869    
   4465000   290.70169     -9707.1581      1208.0917     -5899.4868      9.9710175    
   4470000   295.1378      -9737.9532      1213.1813     -5885.5227     -4.8449401    
   4475000   298.13403     -9776.4506      1279.3665     -5831.0414     -3.1293778    
   4480000   300.60484     -9761.7171      1283.1902     -5790.3891      1.9384108    
   4485000   306.42345     -9759.6403      1186.4772     -5832.9928     -18.763766    
   4490000   297.88051     -9680.5856      1201.6745     -5815.1354      13.463429    
   4495000   301.92988     -9712.9592      1191.4492     -5821.5231     -24.602684    
   4500000   298.14786     -9722.9939      1205.5539     -5851.2736      8.452936     
   4505000   297.84313     -9864.4609      1187.1394     -6013.8802      25.074844    
   4510000   302.75886     -9752.2137      1205.8204     -5838.9933     -17.44808     
   4515000   305.12644     -9715.3437      1151.8464     -5834.9255     -22.798435    
   4520000   305.7854      -9791.717       1222.1106     -5835.1418      7.499307     
   4525000   295.24176     -9829.7731      1194.1884     -5995.4059      19.152156    
   4530000   304.96185     -9765.259       1207.9098     -5830.2492     -9.5785619    
   4535000   297.00669     -9720.453       1226.32       -5838.1715      2.6166434    
   4540000   300.16468     -9761.6132      1226.1187     -5851.2928      0.71757655   
   4545000   307.05317     -9715.4817      1195.288      -5774.3922      11.930501    
   4550000   301.25879     -9722.7474      1210.8344     -5817.9274     -17.150885    
   4555000   293.23962     -9706.0198      1197.4218     -5886.3231      6.3425971    
   4560000   299.0032      -9823.9978      1204.0542     -5946.1283     -4.2755528    
   4565000   306.29625     -9823.1609      1203.1779     -5880.9502      13.627055    
   4570000   301.59324     -9808.8204      1224.4845     -5887.3594      5.0368998    
   4575000   302.48667     -9767.0105      1218.6667     -5843.3778      7.3835923    
   4580000   295.00065     -9788.3372      1229.4534     -5920.861       6.6384744    
   4585000   300.09479     -9774.7499      1253.4988     -5837.6744      0.1240941    
   4590000   297.99835     -9827.5704      1239.7381     -5923.0028     -8.393945     
   4595000   293.91003     -9797.6616      1203.3868     -5966.0049      4.5201565    
   4600000   305.31084     -9710.5286      1273.9151     -5706.3926      6.3430533    
   4605000   301.18018     -9722.7998      1230.3723     -5799.1447      14.450408    
   4610000   299.54541     -9742.5323      1253.6327     -5810.2357     -4.4227045    
   4615000   296.91258     -9699.9043      1210.1922     -5834.592      -8.0765245    
   4620000   306.09564     -9761.5594      1214.0246     -5810.2959      5.6786348    
   4625000   301.30529     -9771.7902      1197.7659     -5879.6228     -2.0722418    
   4630000   311.31643     -9774.7033      1231.8748     -5758.9031      12.98073     
   4635000   296.75953     -9690.4411      1250.9376     -5785.7521     -7.726771     
   4640000   295.65621     -9769.922       1241.5656     -5884.4714      17.444545    
   4645000   299.19073     -9711.1568      1233.1329     -5802.5318      1.3804067    
   4650000   301.76706     -9739.7337      1198.519      -5842.6838     -15.292717    
   4655000   296.65583     -9827.5772      1222.2131     -5952.5401     -0.62665097   
   4660000   305.51703     -9809.9085      1205.0076     -5872.8361     -15.935796    
   4665000   303.29497     -9735.8127      1220.3954     -5803.2231      20.128188    
   4670000   295.02918     -9775.2435      1181.2658     -5955.6999     -18.957069    
   4675000   299.09652     -9687.2925      1235.8031     -5776.8397     -19.241996    
   4680000   297.26505     -9840.5864      1176.4884     -6005.8261     -7.9568251    
   4685000   300.78874     -9828.4637      1215.5441     -5923.1372      4.7993542    
   4690000   299.84798     -9743.6329      1173.3319     -5888.9313      23.602028    
   4695000   302.47898     -9856.0475      1198.7799     -5952.3704      0.7644443    
   4700000   295.80848     -9653.3902      1201.8677     -5806.2758     -22.663221    
   4705000   302.55528     -9780.0663      1209.9371     -5864.5497      10.911349    
   4710000   295.17202     -9771.5331      1206.5851     -5925.3929      14.001305    
   4715000   298.76806     -9803.5537      1210.1069     -5921.7343     -21.969296    
   4720000   297.79121     -9836.0205      1235.2984     -5937.745      -1.1188223    
   4725000   292.70752     -9863.1654      1240.9345     -6004.7144      12.892161    
   4730000   304.54273     -9792.9946      1183.9171     -5885.7254      12.580253    
   4735000   302.14694     -9704.0048      1194.9201     -5807.1567      11.459798    
   4740000   296.29941     -9714.2234      1252.0435     -5812.5431     -22.436004    
   4745000   311.94908     -9868.3443      1224.0393     -5854.7221      14.811179    
   4750000   304.21325     -9790.9811      1213.7192     -5856.8561      4.703592     
   4755000   297.69295     -9796.2144      1231.6612     -5902.4549      9.3257337    
   4760000   302.17307     -9771.4716      1203.5755     -5865.7345     -3.1426074    
   4765000   289.6048      -9721.4842      1237.3122     -5894.4013      10.132598    
   4770000   299.7723      -9770.8883      1220.7974     -5869.3981      26.672225    
   4775000   302.71994     -9827.3672      1201.3523     -5918.963      -0.16366145   
   4780000   299.80902     -9765.7882      1205.7393     -5879.0277      3.1913536    
   4785000   298.08138     -9738.3508      1242.4386     -5830.3403     -9.696608     
   4790000   299.38277     -9700.1509      1191.652      -5831.2894      9.1828221    
   4795000   302.17531     -9828.23        1235.7096     -5890.3388     -30.715644    
   4800000   302.17225     -9742.3075      1186.5243     -5853.6289     -10.548456    
   4805000   306.13598     -9753.0607      1167.4618     -5847.9994      5.2443139    
   4810000   297.64057     -9819.4349      1226.5027     -5931.3022     -1.2996406    
   4815000   301.51458     -9765.2979      1224.0501     -5844.9747     -8.0507314    
   4820000   289.40811     -9728.3281      1221.7983     -5918.518      -23.93206     
   4825000   301.44962     -9739.0615      1228.6481     -5814.7212      17.181335    
   4830000   306.89066     -9762.3794      1211.3493     -5806.6818     -14.050258    
   4835000   295.83369     -9773.9726      1227.3871     -5901.1134      2.1253507    
   4840000   296.75229     -9635.8861      1202.407      -5779.7925      7.8685236    
   4845000   296.7444      -9797.3887      1227.6318     -5916.1409     -10.551834    
   4850000   301.46894     -9729.7579      1231.1484     -5802.7446     -12.384923    
   4855000   297.26669     -9820.0256      1274.894      -5886.845      -1.4802855    
   4860000   306.0712      -9783.3206      1165.8052     -5880.495      -5.2232325    
   4865000   312.20144     -9786.9699      1238.3153     -5756.815       36.107804    
   4870000   303.23407     -9771.3998      1200.6801     -5859.0702      1.6974221    
   4875000   301.17016     -9738.6471      1238.4099     -5807.044      -0.33453805   
   4880000   299.70632     -9676.4643      1192.2926     -5804.0688      9.5964126    
   4885000   301.99624     -9791.4576      1174.9329     -5915.9444      4.3884577    
   4890000   294.2484      -9907.145       1201.571      -6074.2782     -13.842622    
   4895000   302.63667     -9790.2776      1218.2049     -5865.7654      8.5532352    
   4900000   296.34969     -9676.6219      1203.8667     -5822.6688     -16.202405    
   4905000   302.62808     -9745.554       1244.7987     -5794.5249     -29.489201    
   4910000   300.98087     -9744.0438      1264.733      -5787.8104     -0.69817977   
   4915000   304.69198     -9707.1453      1230.6919     -5751.7666     -0.61410805   
   4920000   305.12602     -9640.4327      1228.1077     -5683.7569      7.6699723    
   4925000   302.48397     -9800.7734      1218.9388     -5876.8929     -6.4287502    
   4930000   300.00498     -9745.5155      1237.4599     -5825.2821     -14.483403    
   4935000   299.00476     -9819.656       1192.4329     -5953.394      -17.147625    
   4940000   297.41373     -9835.5504      1254.7038     -5921.2451     -10.357519    
   4945000   295.22429     -9686.9353      1234.7589     -5812.1539      10.653807    
   4950000   300.44559     -9739.7751      1201.9398     -5851.1217      17.050577    
   4955000   293.31275     -9706.4905      1190.7628     -5892.799       11.976048    
   4960000   306.43775     -9770.6809      1244.1765     -5786.2062     -16.153414    
   4965000   300.04748     -9658.8065      1222.7049     -5752.948       7.5764872    
   4970000   299.79751     -9864.4728      1224.9949     -5958.5596     -16.467473    
   4975000   299.43898     -9770.9019      1187.0212     -5906.1686      11.515975    
   4980000   303.08811     -9758.957       1212.27       -5836.3427     -8.0253733    
   4985000   301.25646     -9836.1885      1221.9427     -5920.2809     -1.3640843    
   4990000   300.51146     -9768.0095      1220.7321     -5859.9747      33.570504    
   4995000   292.12681     -9773.9028      1220.2895     -5941.2897      4.1091498    
   5000000   296.98601     -9756.6107      1216.624      -5884.2101      14.086464    
   5005000   305.28737     -9741.5082      1167.3544     -5844.1428     -15.767378    
   5010000   296.34742     -9805.2108      1231.1607     -5923.984      -31.097112    
Loop time of 6770.53 on 18 procs for 5000000 steps with 3001 atoms

Performance: 1914.177 ns/day, 0.013 hours/ns, 738.494 timesteps/s
99.7% CPU use with 18 MPI tasks x 1 OpenMP threads

MPI task timing breakdown:
Section |  min time  |  avg time  |  max time  |%varavg| %total
---------------------------------------------------------------
Pair    | 24.42      | 632.09     | 2391.5     |2599.1 |  9.34
Bond    | 3.5445     | 42.245     | 139.51     | 583.5 |  0.62
Neigh   | 2763       | 2776.9     | 2798.4     |  24.7 | 41.01
Comm    | 1226.9     | 3186.8     | 3876.7     |1297.3 | 47.07
Output  | 21.784     | 21.839     | 21.865     |   0.5 |  0.32
Modify  | 6.1683     | 51.781     | 165.79     | 622.3 |  0.76
Other   |            | 58.93      |            |       |  0.87

Nlocal:        166.722 ave         620 max          13 min
Histogram: 8 0 2 6 0 0 0 0 0 2
Nghost:        5075.11 ave        6047 max        3257 min
Histogram: 2 0 0 0 7 1 0 0 0 8
Neighs:        5731.83 ave       23230 max         210 min
Histogram: 8 0 6 2 0 0 0 0 0 2
FullNghs:      11463.7 ave       46090 max         659 min
Histogram: 8 0 5 3 0 0 0 0 0 2

Total # of neighbors = 206346
Ave neighs/atom = 68.75908
Ave special neighs/atom = 3.5988004
Neighbor list builds = 500000
Dangerous builds = 500000
Total wall time: 1:52:55
