LAMMPS (23 Jun 2022)
OMP_NUM_THREADS environment is not set. Defaulting to 1 thread. (src/src/comm.cpp:98)
  using 1 OpenMP thread(s) per MPI task

variable 		movie equal 25000
variable		output equal 5000
variable		solvent equal 0.2  #0.2 is a good solvent, 0.5 is a bad solvent, 1.0 is no solvent/vacuum
variable		np_rad equal 25.0  #NP radius in Angstrom (= 0.1 nm)
variable		coor_del equal 3.0  # in order for a ligand to be considered to be bound, it must be within this radius of the edge of the NP VDW
variable 		s2_cutoff equal 35
variable 		E_bind equal 10.0  #ligand-NP binding energy in kcal/mol
variable		Lbox equal 150.0   #edge length of cubic simulation box
variable 		Nlig equal 600	   #number of ligands
variable		seed equal 314159
variable		trajsteps equal 25000000	 #number of timesteps (length of simulation)
restart			2500000 save

units 			real
atom_style		molecular

region 			box block 0 ${Lbox} 0 ${Lbox} 0 ${Lbox} units box
region 			box block 0 150 0 ${Lbox} 0 ${Lbox} units box
region 			box block 0 150 0 150 0 ${Lbox} units box
region 			box block 0 150 0 150 0 150 units box
create_box		4 box bond/types 2 angle/types 1 extra/bond/per/atom 2 extra/angle/per/atom 1 extra/special/per/atom 3
Created orthogonal box = (0 0 0) to (150 150 150)
  4 by 4 by 4 MPI processor grid

molecule		lig ligand.mol
Read molecule template lig:
  1 molecules
  0 fragments
  5 atoms with max type 2
  4 bonds with max type 1
  3 angles with max type 1
  0 dihedrals with max type 0
  0 impropers with max type 0
#molecule		hex hexane.mol

mass            1 60 #C1, MARTINI bead representing a 4-carbon segment of an alkyl chain
mass            2 60 #N6d, MARTINI bead representing a NH2 amino group + a 2-carbon segment of an alkyl chain
mass            3 43 #SC2, MARTINI bead representing a 3-carbon segment of an alkyl chain. NOT USED IN THIS SIMULATION!
mass            4 500 #a spherical nanoparticle. the mass is not realistic.

# put NP in center
create_atoms	4 single $(v_Lbox/2) $(v_Lbox/2) $(v_Lbox/2) units box
create_atoms	4 single 75 $(v_Lbox/2) $(v_Lbox/2) units box
create_atoms	4 single 75 75 $(v_Lbox/2) units box
create_atoms	4 single 75 75 75 units box
Created 1 atoms
  using box units in orthogonal box = (0 0 0) to (150 150 150)
  create_atoms CPU = 0.000 seconds

# define region as everything outside a spherical center in sim. box. ASSUME SIM. BOX IS IMPLIED? doc seems to...
region			box_with_hole sphere $(v_Lbox/2) $(v_Lbox/2) $(v_Lbox/2) $(v_np_rad+5.0) side out units box
region			box_with_hole sphere 75 $(v_Lbox/2) $(v_Lbox/2) $(v_np_rad+5.0) side out units box
region			box_with_hole sphere 75 75 $(v_Lbox/2) $(v_np_rad+5.0) side out units box
region			box_with_hole sphere 75 75 75 $(v_np_rad+5.0) side out units box
region			box_with_hole sphere 75 75 75 30 side out units box

create_atoms	0 random ${Nlig} ${seed} box_with_hole mol lig 12345
create_atoms	0 random 600 ${seed} box_with_hole mol lig 12345
create_atoms	0 random 600 314159 box_with_hole mol lig 12345
Created 3000 atoms
  using lattice units in orthogonal box = (0 0 0) to (150 150 150)
  create_atoms CPU = 0.003 seconds

pair_style		lj/expand 12.0
pair_modify		shift yes

#pair_coeff		1 1 energy sigma delta cut

#ligand-ligand interactions
pair_coeff		1 1 $(v_solvent*0.810) 4.7 0 12
pair_coeff		1 1 0.16200000000000003286 4.7 0 12
pair_coeff		2 2 $(v_solvent*0.841) 4.7 0 12
pair_coeff		2 2 0.16820000000000001616 4.7 0 12
pair_coeff		1 2 $(v_solvent*0.667) 4.7 0 12
pair_coeff		1 2 0.13340000000000001856 4.7 0 12

#solvent-ligand interactions, NOT USED IN THIS SIMULATION
pair_coeff		3 3 0.562 4.1 0 12
pair_coeff		1 3 0.755 4.3 0 12
pair_coeff		2 3 0.554 4.3 0 12

#interactions involving the NP
pair_coeff  	1 4 0.100 4.0 $(v_np_rad-2.5) 12
pair_coeff  	1 4 0.100 4.0 22.5 12
pair_coeff  	3 4 0.100 4.0 $(v_np_rad-2.5) 12
pair_coeff  	3 4 0.100 4.0 22.5 12
pair_coeff		4 4 0.100 4.0 $(2*v_np_rad-4.0) 12
pair_coeff		4 4 0.100 4.0 46 12
pair_coeff   	2 4 ${E_bind} 4.0 $(v_np_rad-2.5) 12 #this interaction controls the binding strength of ligands to the NP core
pair_coeff   	2 4 10 4.0 $(v_np_rad-2.5) 12 
pair_coeff   	2 4 10 4.0 22.5 12 

bond_style  	harmonic
bond_coeff  	1 4.54 4.7 	#C1-C1
bond_coeff		2 5.98 4.05 #SC2-SC2, hexane

angle_style		cosine/squared
angle_coeff		1 4.1826 180

special_bonds 	lj 0 1 1
Finding 1-2 1-3 1-4 neighbors ...
  special bond factors lj:    0        1        1       
  special bond factors coul:  0        0        0       
     2 = max # of 1-2 neighbors
     2 = max # of 1-3 neighbors
     2 = max # of 1-4 neighbors
     7 = max # of special neighbors
  special bonds CPU = 0.001 seconds

group			ligands type 1 2
3000 atoms in group ligands


#EQULILIBRATION: getting rid of overlaps between particles using fix nve/limit ***************

fix 			1 ligands nve/limit 0.1
fix 			2 ligands langevin 300 300 1000 12345 #langevin thermostat

timestep		30

thermo 			${output}
thermo 			5000

dump      		1 all custom 5000 pos.lammpstrj type x y z
dump_modify		1 sort id

run				10000
Generated 0 of 6 mixed pair_coeff terms from geometric mixing rule
Neighbor list info ...
  update every 1 steps, delay 10 steps, check yes
  max neighbors/atom: 2000, page size: 100000
  master list distance cutoff = 60
  ghost atom cutoff = 60
  binsize = 30, bins = 5 5 5
  1 neighbor lists, perpetual/occasional/extra = 1 0 0
  (1) pair lj/expand, perpetual
      attributes: half, newton on
      pair build: half/bin/newton
      stencil: half/bin/3d
      bin: standard
Per MPI rank memory allocation (min/avg/max) = 8.076 | 8.105 | 8.367 Mbytes
   Step          Temp          E_pair         E_mol          TotEng         Press     
         0   0              9.8623636e+13  4.0068356e-25  9.8623636e+13  8.0147754e+12
      5000   141.41516     -628.16022      652.1235       1288.5585      7.2769135    
     10000   141.12102     -726.66368      632.53707      1167.8382     -1.1213595    
Loop time of 4.02057 on 64 procs for 10000 steps with 3001 atoms

Performance: 6446.843 ns/day, 0.004 hours/ns, 2487.208 timesteps/s
99.6% CPU use with 64 MPI tasks x 1 OpenMP threads

MPI task timing breakdown:
Section |  min time  |  avg time  |  max time  |%varavg| %total
---------------------------------------------------------------
Pair    | 0.018527   | 0.050847   | 0.11204    |   9.9 |  1.26
Bond    | 0.010889   | 0.021047   | 0.037331   |   3.9 |  0.52
Neigh   | 0.59049    | 0.59603    | 0.60368    |   0.4 | 14.82
Comm    | 3.1705     | 3.2641     | 3.3172     |   1.9 | 81.18
Output  | 0.0012573  | 0.0012767  | 0.0012944  |   0.0 |  0.03
Modify  | 0.021731   | 0.040175   | 0.068229   |   5.2 |  1.00
Other   |            | 0.04713    |            |       |  1.17

Nlocal:        46.8906 ave          84 max          12 min
Histogram: 1 3 8 11 13 11 8 2 5 2
Nghost:        3424.94 ave        3510 max        3341 min
Histogram: 2 4 8 8 9 16 4 7 3 3
Neighs:        314.078 ave         696 max          50 min
Histogram: 3 12 11 8 10 6 5 3 2 4

Total # of neighbors = 20101
Ave neighs/atom = 6.6981006
Ave special neighs/atom = 3.5988004
Neighbor list builds = 909
Dangerous builds = 0

#PRODUCTION RUN ******************************************************************************

unfix 			1
fix 			1 ligands nve
undump			1
# define spherical region in center of sim. box
# region			center sphere $(v_Lbox/2) $(v_Lbox/2) $(v_Lbox/2) $(v_np_rad+5.0) units box
# delete atoms in the region
# delete_atoms	region center mol yes
# put NP in the hole
# create_atoms	4 single $(v_Lbox/2) $(v_Lbox/2) $(v_Lbox/2) units box

dump      		2 all custom ${movie} pos2.lammpstrj type x y z
dump      		2 all custom 25000 pos2.lammpstrj type x y z
dump_modify		2 sort id
dump 			2. all custom ${output} pos2_long.lammpstrj type x y z
dump 			2. all custom 5000 pos2_long.lammpstrj type x y z
dump_modify 	2. sort id

group           nps     type 4
1 atoms in group nps
group           amines  type 2
600 atoms in group amines

# count coordination number of NP
compute coords nps coord/atom cutoff $(v_np_rad + v_coor_del) 2
compute coords nps coord/atom cutoff 28 2
dump 3 nps custom ${output} coords.dmp c_coords
dump 3 nps custom 5000 coords.dmp c_coords
# equivalent calculation below
# compute coords nps coord/atom cutoff 28 group amines
# dump 4 nps custom ${output} coords2.dmp type c_coords2

# seond shell
compute coords2 nps coord/atom cutoff ${s2_cutoff} 2
compute coords2 nps coord/atom cutoff 35 2
dump 4 nps custom ${output} coords2.dmp c_coords2
dump 4 nps custom 5000 coords2.dmp c_coords2



run				${trajsteps}
run				25000000
Generated 0 of 6 mixed pair_coeff terms from geometric mixing rule
Neighbor list info ...
  update every 1 steps, delay 10 steps, check yes
  max neighbors/atom: 2000, page size: 100000
  master list distance cutoff = 60
  ghost atom cutoff = 60
  binsize = 30, bins = 5 5 5
  3 neighbor lists, perpetual/occasional/extra = 1 2 0
  (1) pair lj/expand, perpetual
      attributes: half, newton on
      pair build: half/bin/newton
      stencil: half/bin/3d
      bin: standard
  (2) compute coord/atom, occasional
      attributes: full, newton on
      pair build: full/bin
      stencil: full/bin/3d
      bin: standard
  (3) compute coord/atom, occasional
      attributes: full, newton on
      pair build: full/bin
      stencil: full/bin/3d
      bin: standard
Per MPI rank memory allocation (min/avg/max) = 10.11 | 10.23 | 12.12 Mbytes
   Step          Temp          E_pair         E_mol          TotEng         Press     
     10000   141.12102     -726.66368      632.53707      1167.8382     -1.1213595    
     15000   297.82475     -805.00034      1276.9208      3135.1975      8.7555864    
     20000   299.35177     -942.46327      1298.198       3032.667       9.4215503    
     25000   304.8233      -1106.2722      1283.7076      2903.2964      2.4766079    
     30000   295.36786     -1240.9341      1277.688       2678.0603      11.931167    
     35000   308.02543     -1408.9164      1234.0078      2579.5873     -4.1196689    
     40000   303.37616     -1487.1492      1227.8973      2453.6681     -11.32525     
     45000   301.44033     -1632.8021      1304.1971      2367.0041      15.17848     
     50000   303.32339     -1757.944       1287.4034      2241.9076      1.2630998    
     55000   296.33581     -1867.0383      1297.5877      2080.5118     -2.1511019    
     60000   300.58905     -1979.3077      1240.7754      1949.4643      20.203973    
     65000   296.2607      -2007.2911      1340.1249      1982.1244      5.7737193    
     70000   304.66127     -2059.3094      1231.4098      1896.5126     -3.6952427    
     75000   293.56442     -2146.0059      1293.2         1772.3734      4.1839678    
     80000   303.99003     -2249.4513      1264.0231      1732.9815      8.330939     
     85000   303.86664     -2263.9448      1253.0776      1706.439       7.6286062    
     90000   300.31487     -2290.1765      1278.2334      1673.6016     -5.1034155    
     95000   305.10959     -2301.8449      1235.1329      1661.7091      9.6809652    
    100000   303.98978     -2344.6941      1257.0402      1630.7535     -20.682325    
    105000   307.59802     -2394.7804      1260.6362      1616.5297      15.500297    
    110000   295.79443     -2433.2039      1258.8069      1470.724       17.196782    
    115000   297.44253     -2471.8583      1223.1713      1411.172       11.575855    
    120000   295.99627     -2475.3873      1290.284       1461.8226      15.851734    
    125000   306.60706     -2520.345       1219.0489      1440.5161      10.591032    
    130000   301.09266     -2532.9085      1248.3464      1407.9379      13.580395    
    135000   296.98478     -2611.7115      1323.3244      1367.3785      18.790051    
    140000   305.02962     -2622.2492      1268.8037      1374.2606      12.975285    
    145000   299.04942     -2684.0108      1266.0235      1256.2413      5.268922     
    150000   297.50487     -2774.0133      1215.5796      1101.9828      14.857409    
    155000   302.98405     -2823.5183      1231.6735      1117.569      -12.123514    
    160000   304.48697     -2837.5662      1258.5722      1143.8595     -6.5313285    
    165000   303.32307     -2861.3804      1287.932       1138.9969      4.6654629    
    170000   304.57661     -2884.4805      1236.3695      1075.544       16.799679    
    175000   302.88812     -2906.8924      1254.2037      1055.8672      1.4728436    
    180000   305.88492     -2914.2123      1237.2103      1058.3526      12.511588    
    185000   296.94733     -2966.1586      1286.26        975.53218      12.089062    
    190000   304.97961     -2975.146       1213.2311      965.34402      11.794273    
    195000   305.95528     -3033.8922      1258.1135      960.205        20.398727    
    200000   295.10403     -3085.0724      1248.5038      802.37857      29.281483    
    205000   295.59112     -3090.7626      1272.1854      824.72574      3.9385989    
    210000   293.8414      -3077.8685      1245.6967      795.48441     -19.003423    
    215000   299.84569     -3108.3367      1273.1074      846.11972      27.663555    
    220000   298.52772     -3114.9339      1239.8827      794.51199     -7.5732098    
    225000   304.60414     -3142.893       1294.1996      875.20779      3.2546378    
    230000   307.02204     -3140.5849      1260.9374      865.87571      13.658298    
    235000   306.86868     -3112.6423      1261.6209      893.13037     -0.10305479   
    240000   308.11325     -3155.2004      1231.7994      831.88026     -6.7404714    
    245000   297.94439     -3171.3667      1182.2838      675.264        1.5273876    
    250000   302.90619     -3169.0776      1256.6846      796.32451      31.355361    
    255000   300.24143     -3164.6693      1171.895       692.11376      2.9975853    
    260000   299.41958     -3178.5213      1254.6713      753.68871     -1.563217     
    265000   300.0269      -3184.5114      1294.9599      793.41819      16.614643    
    270000   298.62925     -3207.7859      1249.2829      711.96825      0.94939282   
    275000   299.84728     -3218.4693      1245.1856      708.0797       6.0286286    
    280000   303.00951     -3206.2282      1277.417       780.83017     -9.031914     
    285000   297.6283      -3232.1859      1221.257       650.59139      35.318902    
    290000   300.13618     -3213.3217      1224.1551      694.78027     -1.4244667    
    295000   294.1444      -3217.4583      1252.5747      665.48218     -3.8436608    
    300000   301.04445     -3230.6832      1230.7894      692.17512     -12.668353    
    305000   302.0596      -3219.0476      1264.4434      746.54272      25.992914    
    310000   302.33135     -3221.511       1234.1998      716.2658      -8.0628194    
    315000   297.53446     -3265.565       1252.6639      647.78004      7.0870198    
    320000   303.43536     -3262.2898      1260.593       711.75267      14.95398     
    325000   299.64447     -3279.2883      1167.2639      567.52533     -26.040322    
    330000   303.99589     -3293.0458      1227.0891      652.50536     -10.852284    
    335000   300.24663     -3296.9261      1252.2764      640.28485     -20.384603    
    340000   299.62718     -3293.1617      1227.7321      613.96546      9.0391356    
    345000   305.49589     -3283.9826      1273.0938      720.98693      6.3111649    
    350000   297.32831     -3291.6084      1236.6428      603.87206     -20.36119     
    355000   295.34894     -3298.2844      1195.0789      537.93174      8.6965526    
    360000   308.5669      -3311.1775      1241.7646      689.925       -19.385133    
    365000   293.61367     -3294.3009      1265.5492      596.86799      12.375722    
    370000   293.39105     -3316.499       1226.1353      533.26524      19.707238    
    375000   295.70138     -3307.0449      1237.4708      574.71484     -36.705104    
    380000   294.20867     -3295.4437      1214.3529      549.84972      2.186753     
    385000   296.60154     -3314.7266      1198.6222      536.23406     -1.8905992    
    390000   296.03482     -3331.8372      1220.11        535.54349      6.5803539    
    395000   296.99632     -3335.1461      1217.2334      537.95617     -6.9389015    
    400000   304.70814     -3347.0786      1249.922       627.67459      37.964593    
    405000   295.83437     -3330.4891      1253.2074      568.1965       5.1594401    
    410000   308.94727     -3349.9874      1198.2148      610.9668      -26.068702    
    415000   303.93574     -3356.5355      1267.5283      628.91697      6.0253296    
    420000   305.3274      -3347.9561      1203.4082      585.82102     -2.9728537    
    425000   303.47269     -3353.7731      1269.9688      629.97911      9.7827543    
    430000   305.11606     -3390.6167      1190.2119      528.07425      10.664108    
    435000   300.70501     -3398.6853      1200.2743      490.62255      35.723294    
    440000   288.89377     -3389.763       1213.1692      406.81852      12.164541    
    445000   300.95289     -3401.3541      1222.8008      512.69696      15.559728    
    450000   304.38027     -3443.1923      1211.1727      489.8797       16.200492    
    455000   297.25762     -3389.6814      1209.799       478.32304     -13.085004    
    460000   304.97407     -3410.3377      1231.6214      548.49309      37.40908     
    465000   299.01313     -3431.2906      1252.6387      495.25208      36.29953     
    470000   297.43861     -3421.695       1244.2798      482.40883     -3.2966405    
    475000   304.26037     -3426.3323      1218.1225      512.61729      3.2671141    
    480000   298.80732     -3429.1526      1209.5026      452.4136      -15.152321    
    485000   303.31483     -3452.097       1234.6284      494.90304      12.703078    
    490000   301.73236     -3430.1264      1232.6972      500.7914      -1.1189913    
    495000   301.58709     -3430.6821      1244.9448      511.18415      5.8996003    
    500000   293.09191     -3447.4869      1188.6838      362.15087      14.184388    
    505000   300.68021     -3490.26        1220.3702      418.92201     -13.04354     
    510000   298.86996     -3465.374       1224.5415      431.79124     -1.5695511    
    515000   296.67345     -3503.0437      1236.1637      386.10154     -7.801667     
    520000   304.64489     -3492.0451      1218.8637      451.08424      30.690336    
    525000   302.25953     -3489.9084      1215.8766      428.903        11.617065    
    530000   302.46434     -3546.2989      1195.7037      354.17095      19.197572    
    535000   309.60043     -3510.7713      1201.6219      459.43088      0.82601394   
    540000   302.03629     -3529.1254      1230.7245      402.53751     -26.856154    
    545000   298.09084     -3484.1495      1274.168       455.67509     -0.93538941   
    550000   302.72614     -3501.327       1235.9698      441.75011      9.3868566    
    555000   296.57478     -3490.2951      1187.0299      348.83408      11.3503      
    560000   302.29089     -3488.0207      1246.9469      462.1414      -23.708047    
    565000   294.20767     -3532.9535      1235.5443      333.52238     -11.51448     
    570000   301.41073     -3550.5282      1239.5711      384.38735      8.5605667    
    575000   294.17156     -3516.3283      1242.6382      356.91856     -10.692843    
    580000   299.98592     -3553.8732      1235.4268      364.15675      8.689318     
    585000   295.14113     -3567.5934      1237.4811      309.1666       10.888411    
    590000   297.12694     -3542.7038      1262.4899      376.823        33.537632    
    595000   307.23213     -3549.1024      1231.784       430.0835      -1.1215078    
    600000   304.02974     -3569.4186      1220.1364      369.48257      5.2776268    
    605000   299.07492     -3559.8063      1260.124       374.77428     -11.397626    
    610000   296.44397     -3554.7767      1220.1039      316.25676     -21.344173    
    615000   304.52438     -3553.5148      1201.5588      371.232        19.616739    
    620000   302.79072     -3557.2881      1179.6974      330.09423      27.361409    
    625000   299.85291     -3535.899       1235.1419      380.65653     -16.631006    
    630000   300.14399     -3555.7644      1189.2985      317.55076      13.040976    
    635000   296.6697      -3539.7066      1222.1811      335.4225       36.09664     
    640000   304.88449     -3559.5173      1233.8333      400.72434      22.175025    
    645000   308.63042     -3553.7372      1210.7978      416.96654     -1.8379796    
    650000   297.81473     -3546.1583      1232.5113      349.54037      4.0380341    
    655000   305.24345     -3582.4757      1206.3943      353.53686     -5.5518933    
    660000   302.6994      -3579.9896      1202.7886      329.66718     -0.33548186   
    665000   301.5362      -3547.7431      1210.5845      359.30786     -4.949388     
    670000   299.97049     -3568.3723      1260.0478      374.14063      15.322161    
    675000   306.98234     -3558.0865      1191.0733      378.155        31.823717    
    680000   304.28176     -3583.2933      1217.4153      355.14041     -2.1976898    
    685000   304.55967     -3590.0657      1221.0024      354.44029     -10.995704    
    690000   303.87983     -3556.9262      1203.854       364.35185      17.521287    
    695000   297.87471     -3533.5695      1207.1687      337.32302     -36.712076    
    700000   299.51594     -3558.8033      1195.4407      315.03783     -5.5985312    
    705000   302.79485     -3514.7757      1196.0564      389.00248     -17.310562    
    710000   297.39743     -3554.8812      1261.6551      366.22958      9.0779848    
    715000   301.88015     -3575.4463      1221.9346      346.03042     -18.618504    
    720000   301.6894      -3607.451       1249.4027      339.78813      8.2610376    
    725000   298.04439     -3578.2955      1243.4766      330.42225      20.651118    
    730000   308.10734     -3548.7366      1245.5392      452.03101      4.539415     
    735000   298.04795     -3586.3306      1225.7234      304.66584      18.341024    
    740000   303.5282      -3570.7557      1258.4385      401.96251      11.749148    
    745000   303.78877     -3568.8804      1221.8369      369.56646      12.232126    
    750000   299.22185     -3576.2303      1232.7842      332.3244       7.71676      
    755000   294.04774     -3561.4149      1220.8652      288.95169      12.249478    
    760000   305.69944     -3580.1986      1202.1666      355.66387      19.492098    
    765000   301.17157     -3561.3759      1229.074       360.90383     -7.2755334    
    770000   293.05341     -3617.5643      1214.7834      217.8287       15.837743    
    775000   291.34291     -3584.6598      1229.3731      250.02687      26.662834    
    780000   296.40316     -3613.6589      1237.8855      274.79109      30.252074    
    785000   308.21419     -3580.7522      1228.8213      404.25301     -4.3772001    
    790000   301.22472     -3588.9043      1183.7936      288.57031      7.090511     
    795000   295.8615      -3603.7309      1218.7129      260.70281      14.318626    
    800000   297.28245     -3614.0798      1211.6891      256.03683     -19.208797    
    805000   306.18446     -3596.7399      1216.1258      357.419        4.2921078    
    810000   297.42829     -3593.7948      1226.1199      292.0567      -0.55352718   
    815000   298.48087     -3610.484       1224.6934      283.35374      15.510685    
    820000   299.06586     -3620.5897      1181.1274      234.91324      21.853823    
    825000   302.79884     -3602.9494      1221.7822      326.59025      0.62249114   
    830000   297.97787     -3608.0009      1253.5793      310.22471      1.9593107    
    835000   306.01758     -3588.1552      1203.4364      351.82205     -3.7828709    
    840000   291.33176     -3606.2146      1216.494       215.49332     -4.0885787    
    845000   294.312       -3621.6849      1187.6906      197.87022      3.4162092    
    850000   294.67401     -3612.3656      1222.4088      245.14486     -9.0014226    
    855000   291.16184     -3590.5058      1241.1022      254.29087     -4.6058641    
    860000   297.55736     -3606.7438      1211.1815      265.32369      8.7689038    
    865000   302.14382     -3606.3307      1230.8359      326.40521      0.1082733    
    870000   301.14971     -3607.3297      1208.1628      293.8434      -10.399597    
    875000   300.80387     -3596.6813      1188.3063      281.54264     -7.5808256    
    880000   303.26533     -3631.5417      1192.8582      273.24551      12.722273    
    885000   306.10015     -3629.9437      1221.3161      328.65163     -17.655729    
    890000   299.2752      -3674.031       1181.3592      183.57577      22.489032    
    895000   298.18455     -3665.8291      1226.943       227.60831      37.592892    
    900000   304.12939     -3643.2877      1259.0293      335.39742     -13.212677    
    905000   297.61099     -3649.9909      1204.936       216.31058      9.1786288    
    910000   298.48687     -3653.7981      1253.4026      268.8025       9.3282867    
    915000   304.22476     -3652.0153      1226.6386      295.13193     -14.021811    
    920000   296.97135     -3656.9787      1191.6871      190.35396      20.211884    
    925000   302.38288     -3645.8489      1229.6593      287.84825     -0.88386169   
    930000   302.14957     -3664.7145      1279.9606      317.19745      8.2960034    
    935000   299.22659     -3667.041       1205.8039      214.57579     -17.176139    
    940000   300.95659     -3694.4412      1247.4768      244.31884     -1.2306564    
    945000   301.39374     -3674.8383      1226.1808      246.53491      16.532401    
    950000   302.12562     -3688.604       1204.7585      217.89175      7.6868817    
    955000   303.48609     -3671.0897      1206.0473      248.86081      17.029934    
    960000   299.47642     -3682.7484      1192.0962      187.39469      2.2271556    
    965000   300.64815     -3702.2425      1232.521       218.80366     -10.133677    
    970000   303.66315     -3678.8868      1197.4918      234.09153     -2.2831423    
    975000   301.17477     -3698.3463      1196.7867      191.67475      7.0519175    
    980000   298.30139     -3670.2806      1172.3667      169.62543      3.18322      
    985000   295.40142     -3653.6315      1163.5347      151.50977     -6.5970087    
    990000   298.79808     -3671.3199      1167.1883      167.8493       5.7036904    
    995000   299.82371     -3668.4941      1204.5692      217.22774     -11.102393    
   1000000   296.24126     -3675.2027      1243.144       217.05811      10.979935    
   1005000   301.48423     -3671.7193      1194.0115      218.2939      -29.130872    
   1010000   296.60657     -3673.0847      1216.5893      195.88811     -23.668342    
   1015000   303.62984     -3657.7549      1230.9517      288.38531      10.410989    
   1020000   293.30055     -3665.09        1187.2756      145.00525      9.1637221    
   1025000   302.71782     -3649.0071      1220.8492      278.87515     -7.2597472    
   1030000   303.45853     -3660.0462      1176.4521      230.06262      19.152748    
   1035000   296.46746     -3657.0574      1179.7245      173.8066      -10.097041    
   1040000   295.54745     -3653.982       1177.0823      166.01271      20.443331    
   1045000   303.82139     -3647.3542      1243.0442      312.59159     -0.17600816   
   1050000   290.70027     -3679.7466      1200.9029      120.72307     -3.5500406    
   1055000   296.6981      -3680.6128      1181.7419      154.33117     -21.799541    
   1060000   301.33932     -3636.6941      1220.786       278.79773     -12.967877    
   1065000   294.98691     -3657.5941      1208.7385      189.04431     -10.723946    
   1070000   304.42544     -3668.0766      1187.8737      242.10032      13.12503     
   1075000   298.37479     -3659.4561      1201.1995      209.93914     -16.95009     
   1080000   305.82733     -3649.9425      1201.6731      286.57017      36.086718    
   1085000   299.88003     -3667.4209      1196.3429      210.57822      9.5131417    
   1090000   302.40415     -3653.6903      1251.0178      301.55555     -16.838088    
   1095000   302.86467     -3645.9717      1208.7492      271.12366      3.5195676    
   1100000   298.05783     -3657.1176      1231.4189      239.66258     -5.3613991    
   1105000   302.59876     -3678.9275      1264.6352      291.67599      26.429756    
   1110000   295.91746     -3670.7251      1243.0806      218.57668     -24.779792    
   1115000   296.79776     -3714.2001      1202.7936      142.68683      17.845173    
   1120000   301.67406     -3679.3828      1189.5846      207.90105      11.217865    
   1125000   303.19284     -3694.7158      1204.5719      221.13688      0.28426161   
   1130000   308.59826     -3676.1427      1242.4007      325.87638      13.226373    
   1135000   302.05716     -3692.6334      1216.746       225.2377       8.4209614    
   1140000   296.9529      -3693.8258      1217.3711      179.02589     -1.4510562    
   1145000   306.31894     -3691.5146      1201.6327      249.35383      7.0867861    
   1150000   300.3382      -3678.9632      1202.1691      208.95932      19.480356    
   1155000   294.18762     -3698.5703      1202.9637      135.14555      7.9217166    
   1160000   303.84274     -3672.5866      1288.2679      332.7737      -18.133674    
   1165000   305.33153     -3663.0484      1217.7428      285.10023     -19.868422    
   1170000   297.49302     -3659.0379      1252.2816      253.55433      21.820895    
   1175000   290.91702     -3677.5186      1254.8951      178.88167     -8.7859682    
   1180000   297.91737     -3689.3974      1254.5936      229.30147      23.662351    
   1185000   301.2725      -3639.9644      1171.3723      225.51618      35.943771    
   1190000   291.94775     -3676.4008      1188.8449      123.16645      21.540979    
   1195000   297.16013     -3653.8969      1217.9885      221.42528      14.87969     
   1200000   295.92159     -3684.964       1248.7719      210.06601      10.459212    
   1205000   293.72834     -3662.2162      1244.2172      208.64619     -17.052041    
   1210000   298.60335     -3708.2367      1189.9577      151.96063      7.4290773    
   1215000   297.4747      -3651.8242      1205.4535      213.77604      12.653743    
   1220000   305.16779     -3653.5306      1251.803       327.21405      0.75020736   
   1225000   300.551       -3679.2968      1217.2143      225.57378      28.160517    
   1230000   290.53737     -3642.4985      1203.2889      158.90055      15.434044    
   1235000   298.50234     -3691.9473      1188.7526      166.14153      0.071598871  
   1240000   294.95205     -3671.9034      1226.9724      192.65715      3.0728174    
   1245000   301.80687     -3717.0355      1190.1616      172.0129       3.8829372    
   1250000   301.61731     -3677.5841      1207.8983      227.5059       4.7701334    
   1255000   299.66756     -3689.7453      1219.5538      209.56483      3.6652431    
   1260000   302.25424     -3715.0668      1236.5186      224.33916      5.7965116    
   1265000   306.05216     -3729.2471      1229.2193      236.82223      13.839069    
   1270000   300.39745     -3688.5101      1231.956       229.72913     -12.066401    
   1275000   302.30023     -3710.216       1198.5776      191.66023      4.5956048    
   1280000   298.58598     -3666.9012      1201.1337      204.31672      2.6568173    
   1285000   305.75209     -3704.4177      1232.6072      262.35614     -9.8685914    
   1290000   301.68871     -3655.2293      1274.3325      316.93338      15.931451    
   1295000   295.25573     -3707.1528      1195.5215      128.67237     -12.48175     
   1300000   303.64545     -3687.5757      1182.2378      209.99036      13.152097    
   1305000   301.5558      -3660.9567      1190.0147      225.69965     -1.615398     
   1310000   304.38438     -3674.7832      1217.4848      264.63773      7.7454168    
   1315000   299.30599     -3718.3167      1209.3633      167.56951     -12.240286    
   1320000   298.29062     -3708.5092      1234.9379      193.87169     -9.6010616    
   1325000   297.76869     -3689.2559      1219.5346      193.05433      17.164642    
   1330000   298.11269     -3718.4143      1197.0958      144.53343     -1.2829128    
   1335000   312.72617     -3738.8502      1183.5206      241.20239      14.250569    
   1340000   303.89304     -3707.6012      1254.5085      264.44953      34.234151    
   1345000   301.05947     -3706.2908      1237.6073      223.51972      22.107366    
   1350000   305.31948     -3697.9181      1235.7113      268.09124      29.117966    
   1355000   295.72753     -3726.5023      1215.5677      133.58819      0.33921483   
   1360000   301.47216     -3704.3311      1238.5091      230.07171     -1.3131109    
   1365000   298.57468     -3725.4076      1210.2299      154.80559      12.192971    
   1370000   304.21023     -3677.8336      1234.7297      277.27487     -2.2753036    
   1375000   297.05692     -3706.1923      1243.5085      193.72696     -18.570935    
   1380000   301.34931     -3732.2999      1220.625       183.12026      0.87054164   
   1385000   304.15253     -3742.9216      1262.5481      239.48925      10.802491    
   1390000   303.62419     -3733.6786      1215.6376      197.09716      3.085055     
   1395000   295.10674     -3714.8685      1198.3891      122.49198      6.5291352    
   1400000   299.05195     -3732.7722      1235.9358      177.41476      20.117605    
   1405000   293.96576     -3722.3381      1214.3427      120.7729      -12.188125    
   1410000   292.24251     -3704.2163      1220.081       129.22295      15.620299    
   1415000   294.56336     -3711.82        1228.459       150.75131     -7.2894419    
   1420000   299.91835     -3693.7553      1233.4256      221.66913     -5.2121541    
   1425000   304.20856     -3710.6106      1177.9681      187.72131     -5.7242655    
   1430000   296.8467      -3735.0466      1201.2024      120.6867       14.877157    
   1435000   303.37327     -3727.3746      1229.8287      215.34833     -14.896074    
   1440000   306.33424     -3741.9195      1213.2103      210.66339      34.102596    
   1445000   301.79778     -3734.1628      1190.8942      155.53695     -2.1326584    
   1450000   300.84592     -3780.9078      1219.7139      129.09962     -28.266158    
   1455000   294.48265     -3767.3096      1226.0737      92.154664     -18.749219    
   1460000   297.23192     -3744.6466      1236.7127      150.04177      7.8563492    
   1465000   305.65003     -3728.7733      1186.7096      191.19035     -9.562013     
   1470000   300.01757     -3761.9046      1272.1497      193.13121     -17.480379    
   1475000   299.14736     -3751.2361      1220.6507      144.51888      17.609631    
   1480000   301.42556     -3742.2894      1203.3131      156.50063      6.7034925    
   1485000   306.71924     -3767.2776      1213.1859      188.72365     -1.9984627    
   1490000   299.26238     -3759.2133      1169.0728      85.992437      4.7382068    
   1495000   298.0174      -3758.4075      1212.1056      118.69781      18.658817    
   1500000   296.90238     -3758.4948      1191.9056      88.439588      11.799438    
   1505000   300.2572      -3756.3238      1178.5167      107.22186      7.0298584    
   1510000   303.19418     -3776.9185      1207.7093      142.0836       1.4737639    
   1515000   297.22388     -3755.4243      1208.9868      111.46633      3.5397322    
   1520000   299.80253     -3753.2064      1185.4237      113.18052      1.9876168    
   1525000   303.17693     -3747.7234      1187.8761      151.29122      24.150512    
   1530000   301.63735     -3754.8652      1231.3754      173.88111     -2.8759931    
   1535000   292.8732      -3749.6065      1178.7721      48.163766     -0.68853142   
   1540000   304.65574     -3759.5532      1235.7923      200.60177      11.855586    
   1545000   297.99384     -3841.4861      1232.7931      56.096129      5.4363652    
   1550000   288.58931     -3765.626       1218.8229      33.886684      8.0650993    
   1555000   296.23125     -3753.6207      1189.9888      85.395346     -4.9182239    
   1560000   300.8501      -3769.8337      1225.0975      145.59479      0.029476266  
   1565000   302.29582     -3740.1836      1159.0382      122.11381     -22.637709    
   1570000   304.23805     -3731.8742      1198.2704      187.02368      18.734131    
   1575000   299.72287     -3728.1931      1182.787       134.84475     -16.358747    
   1580000   292.1368      -3736.6826      1231.4594      107.18978      13.080009    
   1585000   297.58131     -3739.2304      1250.5631      172.43281      5.2609115    
   1590000   300.81473     -3739.0455      1212.517       163.48616     -5.3326188    
   1595000   298.36739     -3736.2213      1164.497       96.405252      7.7785061    
   1600000   304.30477     -3739.482       1235.7466      217.48878     -9.007246     
   1605000   298.77495     -3702.1766      1182.3813      151.97871     -6.5471997    
   1610000   304.99616     -3718.2539      1264.0827      273.23563     -0.98924226   
   1615000   302.99076     -3722.1396      1192.8556      180.18968      1.4044071    
   1620000   297.95661     -3736.0914      1227.4801      155.84498      21.164127    
   1625000   298.78682     -3724.8304      1224.8963      171.94623     -2.1987073    
   1630000   288.70376     -3726.3604      1179.6964      35.049164      5.8780769    
   1635000   302.65298     -3735.6728      1168.5365      139.31694      10.730063    
   1640000   301.37194     -3714.9282      1192.8194      172.8888       19.807869    
   1645000   301.5175      -3732.457       1251.8361      215.67838      23.26457     
   1650000   293.97961     -3706.9526      1281.7609      203.70039     -8.5441432    
   1655000   294.52573     -3729.164       1165.0499      69.66168      -23.099074    
   1660000   301.91404     -3715.4205      1259.9378      244.36249     -25.892871    
   1665000   301.44375     -3732.2369      1205.5036      168.90637      24.681956    
   1670000   310.38111     -3718.9403      1216.479       273.10013     -2.1227246    
   1675000   300.44134     -3741.9352      1186.559       131.29953      28.498247    
   1680000   299.57796     -3736.4968      1191.6707      134.12892      10.808522    
   1685000   298.82103     -3732.98        1232.825       172.0312       11.999642    
   1690000   294.59655     -3746.1918      1185.8953      74.112555      18.933482    
   1695000   294.5048      -3726.641       1253.3209      160.26845      6.6721334    
   1700000   305.10254     -3731.0067      1247.0476      244.39913     -22.018298    
   1705000   297.72684     -3720.2082      1190.3001      132.49331     -2.8081222    
   1710000   305.58238     -3742.346       1179.9114      170.21444      47.235112    
   1715000   298.32289     -3756.0723      1175.3732      87.032473     -15.425625    
   1720000   292.68785     -3749.205       1195.5389      63.674555     -15.356679    
   1725000   304.39297     -3740.1212      1261.2096      243.10133     -1.7427192    
   1730000   301.25011     -3749.4654      1170.4814      114.92403     -17.608451    
   1735000   300.43682     -3730.4478      1217.3874      173.57479      7.1068295    
   1740000   300.71709     -3731.6122      1208.6858      166.21521     -14.743147    
   1745000   299.58196     -3730.3612      1202.0514      150.68092     -30.417721    
   1750000   297.18207     -3754.144       1210.3529      113.73871      3.4465655    
   1755000   301.95497     -3763.8619      1220.6837      157.03298      28.31766     
   1760000   306.75045     -3710.3441      1194.5307      227.28108     -16.720265    
   1765000   300.81526     -3708.5145      1231.8895      213.39442      3.42824      
   1770000   297.3062      -3725.9133      1238.4478      171.17439     -10.876225    
   1775000   302.70758     -3726.1459      1231.4065      212.20201     -26.17717     
   1780000   298.87115     -3717.5149      1237.0367      192.15612      2.6037177    
   1785000   291.00652     -3730.5222      1220.951       92.734342      18.72754     
   1790000   295.19177     -3697.4742      1268.1392      210.39684      5.2502115    
   1795000   294.54229     -3700.7543      1243.9437      177.11332     -8.8422437    
   1800000   298.6068      -3733.1889      1228.452       165.53356     -4.8060023    
   1805000   302.83557     -3708.524       1203.5538      203.11572     -9.1753629    
   1810000   301.28749     -3712.2616      1208.6414      190.62213     -4.6617282    
   1815000   299.07853     -3677.9131      1195.5599      192.13572      18.069694    
   1820000   300.98283     -3729.1778      1201.0732      163.41337     -8.3759629    
   1825000   296.84447     -3735.2546      1267.4301      186.6863       17.161474    
   1830000   306.0623      -3707.7065      1205.9899      235.22412     -14.243328    
   1835000   300.29946     -3726.7487      1160.6598      119.31802     -9.3842377    
   1840000   300.78588     -3685.91        1174.7435      178.59018      2.9059247    
   1845000   308.32558     -3706.9625      1225.1741      275.3916       13.145594    
   1850000   301.29881     -3706.6235      1174.7833      162.50343     -4.6729968    
   1855000   291.10116     -3676.4514      1255.437       182.1374      -1.5023828    
   1860000   290.92577     -3679.3681      1185.6485      107.86377     -6.127425     
   1865000   305.97332     -3675.1153      1222.7226      283.75239      13.271297    
   1870000   300.53938     -3690.3238      1207.4756      204.70423      7.6268739    
   1875000   298.6768      -3709.8461      1206.3699      167.42021      15.436898    
   1880000   304.96771     -3701.4443      1228.4768      254.18496      1.8600513    
   1885000   297.58597     -3680.2416      1222.4008      203.30097      17.713146    
   1890000   295.3804      -3685.3591      1231.0641      187.12355     -18.043736    
   1895000   306.56307     -3705.7628      1172.1551      207.81116     -8.8976809    
   1900000   303.42708     -3707.2139      1205.1689      211.33046      12.294013    
   1905000   294.40794     -3698.1292      1150.6426      85.235897     -7.8002732    
   1910000   297.01544     -3688.6835      1279.0009      246.35726     -18.933656    
   1915000   295.59326     -3674.6791      1209.2372      177.88009     -4.2232798    
   1920000   304.72762     -3683.8303      1238.7226      279.8978       14.203465    
   1925000   301.1306      -3691.1481      1266.6593      268.35064     -20.513751    
   1930000   303.87295     -3702.1046      1258.2395      273.49755     -4.0394935    
   1935000   298.48381     -3669.7532      1192.4034      191.8209       2.43415      
   1940000   301.92546     -3687.3045      1217.4418      230.08473      14.703109    
   1945000   301.69719     -3681.6419      1204.1494      220.41352      32.123798    
   1950000   300.30468     -3663.224       1212.7308      234.96042     -5.8630926    
   1955000   294.03134     -3670.3869      1248.1713      207.13911     -30.900059    
   1960000   296.9916      -3656.5278      1140.8886      140.18742     -3.1715849    
   1965000   297.17488     -3690.8357      1212.3928      179.02276      22.249721    
   1970000   299.95279     -3658.7547      1244.678       268.23023     -14.704562    
   1975000   299.60816     -3624.5215      1220.8542      275.55774     -20.593626    
   1980000   303.56465     -3655.3526      1201.7606      261.01375     -0.66529301   
   1985000   300.10446     -3641.5837      1202.5587      244.63814     -44.485337    
   1990000   302.34369     -3646.8927      1183.0667      239.8614      -3.0942807    
   1995000   302.35329     -3665.8569      1151.8462      189.76241      16.443508    
   2000000   297.92215     -3659.1203      1226.174       231.20175      12.137345    
   2005000   310.62924     -3655.475       1233.1486      355.45392      32.260094    
   2010000   298.19326     -3671.9916      1236.2249      230.80563     -12.251154    
   2015000   297.90556     -3667.2969      1216.2038      212.90649      0.91785819   
   2020000   302.40904     -3663.4853      1194.5216      235.30804      10.308022    
   2025000   290.71033     -3640.1112      1216.4726      176.01816     -29.725786    
   2030000   295.70651     -3669.1425      1183.3011      158.4934       31.83809     
   2035000   292.92347     -3650.6976      1235.1644      203.91453     -18.67634     
   2040000   294.14361     -3639.3516      1171.4464      162.45342      6.591005     
   2045000   300.03144     -3622.4435      1242.7211      303.28787      37.601034    
   2050000   299.48699     -3647.9727      1209.75        239.91876      8.4083561    
   2055000   291.90174     -3660.2037      1229.4512      179.55839     -12.4136      
   2060000   300.87174     -3623.1541      1192.8279      260.19831      12.012213    
   2065000   302.69492     -3639.0108      1176.4551      244.27241     -7.6696488    
   2070000   292.94531     -3641.586       1263.489       241.54599     -20.662708    
   2075000   298.18864     -3655.6023      1226.0204      236.94923      28.324943    
   2080000   291.62132     -3634.4495      1251.9996      225.35334      3.2798274    
   2085000   303.53181     -3610.8681      1231.7374      335.18133     -32.312849    
   2090000   300.93572     -3630.147       1283.8068      344.75651     -11.735491    
   2095000   301.75798     -3629.9839      1188.4305      256.8962       3.2162465    
   2100000   307.82375     -3607.3187      1206.9261      352.29988      38.987391    
   2105000   305.96756     -3634.1456      1241.2441      343.19208      13.592529    
   2110000   301.22753     -3648.4786      1240.2437      285.47121      21.907952    
   2115000   301.18212     -3658.9865      1232.8387      267.15224     -3.8195844    
   2120000   292.36656     -3606.1873      1226.1236      234.40384      14.383215    
   2125000   303.67905     -3644.0965      1189.095       260.62717     -6.9558402    
   2130000   297.11693     -3658.045       1194.6017      193.50413     -22.548699    
   2135000   304.48308     -3673.4062      1215.0427      264.45511      0.66985311   
   2140000   307.96148     -3647.1978      1190.5254      297.25168      15.413865    
   2145000   298.61216     -3670.6016      1231.9154      231.63211      2.3877959    
   2150000   301.92436     -3653.1654      1184.7278      231.50002      21.004135    
   2155000   305.5264      -3636.4919      1248.9856      344.64217     -6.6779718    
   2160000   304.10208     -3653.0741      1232.1758      298.51333     -17.152015    
   2165000   297.07657     -3687.2873      1225.4543      194.7535       51.018607    
   2170000   306.96007     -3686.8834      1252.8116      310.89725     -8.6130951    
   2175000   292.89028     -3680.4324      1219.0857      157.80416      14.947111    
   2180000   302.6122      -3660.7471      1218.8478      264.18921     -5.7946044    
   2185000   298.9133      -3692.7076      1229.4187      209.7224       20.940181    
   2190000   298.94722     -3692.0105      1245.5045      226.80865      9.2382952    
   2195000   303.66596     -3662.7712      1227.3719      280.11243      7.0523692    
   2200000   303.72712     -3713.6         1186.5195      188.97817      14.739176    
   2205000   303.68692     -3703.6394      1200.1709      212.23056      32.602685    
   2210000   301.45878     -3686.8081      1217.0153      225.9813      -19.195828    
   2215000   299.81476     -3691.2944      1222.7375      212.51558     -17.666834    
   2220000   296.35953     -3730.6907      1182.1268      101.61058      2.0364206    
   2225000   297.78657     -3729.413       1238.9641      172.48663      6.9582773    
   2230000   304.03465     -3716.4859      1205.0528      207.37551     -29.684963    
   2235000   299.33686     -3686.7383      1250.6057      240.66631     -26.476045    
   2240000   295.34789     -3696.3862      1214.8373      159.57898     -1.2561368    
   2245000   297.29305     -3709.1241      1188.825       138.22327     -13.605096    
   2250000   302.92317     -3737.4668      1209.2805      180.68305     -1.7440115    
   2255000   302.65482     -3717.5298      1230.6934      219.6332      -5.198614     
   2260000   294.30802     -3721.9465      1207.8409      117.72327      16.352165    
   2265000   303.27109     -3725.1068      1253.26        240.13382      14.456154    
   2270000   295.71212     -3698.0235      1242.3115      188.67302      3.5771695    
   2275000   313.91372     -3730.795       1196.7086      273.06516     -15.517244    
   2280000   301.2758      -3681.687       1210.6457      223.09644      20.254082    
   2285000   293.33991     -3724.6557      1182.2749      80.790878      7.7645078    
   2290000   303.60109     -3729.6856      1238.8552      224.1012       19.417449    
   2295000   301.73844     -3713.1283      1222.5386      207.68516     -22.12327     
   2300000   294.4741      -3734.3619      1189.7619      88.714096     -6.0085327    
   2305000   302.70415     -3741.5637      1238.6629      204.00999      23.846257    
   2310000   305.16141     -3730.1543      1216.6227      215.35299      1.2939241    
   2315000   295.98786     -3731.7645      1226.038       141.12417     -24.251403    
   2320000   301.64476     -3740.7407      1201.2244      157.92093      19.040275    
   2325000   295.78818     -3754.8597      1199.2236      89.429005     -9.5666974    
   2330000   300.39139     -3746.0827      1194.7377      134.88397      8.9956103    
   2335000   297.2619      -3743.4694      1174.5785      89.352863     -8.1634906    
   2340000   296.15228     -3751.0637      1234.2485      131.50588     -10.638704    
   2345000   301.38329     -3739.0142      1182.0044      138.0892      -25.285391    
   2350000   304.49222     -3705.283       1257.1793      274.79661     -1.5825107    
   2355000   301.60108     -3697.3624      1199.7013      199.3855       28.907767    
   2360000   302.9041      -3684.8132      1233.8826      257.76818     -18.395614    
   2365000   298.67828     -3673.0264      1208.0561      205.93935     -2.0272623    
   2370000   305.31038     -3688.0094      1176.8409      219.0482       0.24698241   
   2375000   302.24124     -3691.322       1244.8605      256.30958      9.2777218    
   2380000   294.72903     -3677.2916      1189.9988      148.30088      9.4221578    
   2385000   302.28116     -3674.4703      1228.9741      257.63187      9.8274672    
   2390000   300.4599      -3731.522       1174.7553      130.07498      30.199886    
   2395000   298.66101     -3668.2496      1249.372       251.87762      26.837988    
   2400000   294.79613     -3685.8474      1228.8451      179.19141      7.0537991    
   2405000   299.28528     -3684.4201      1241.1934      233.11106     -9.6308197    
   2410000   302.68796     -3702.044       1260.6679      265.38978     -4.9696418    
   2415000   300.36686     -3676.1399      1208.5663      218.43613      27.052248    
   2420000   304.69652     -3665.5459      1178.3153      237.49679     -9.1125759    
   2425000   301.02699     -3710.5322      1251.5291      232.9098       15.259372    
   2430000   297.62106     -3708.9895      1191.1273      143.59339      8.400268     
   2435000   303.13827     -3679.0547      1230.4588      262.19698     -13.140688    
   2440000   302.80594     -3685.7145      1247.7399      269.84637      24.838151    
   2445000   300.72875     -3723.1134      1200.2502      166.38263      5.0185299    
   2450000   302.97685     -3714.3341      1225.4066      220.42186      7.4416597    
   2455000   302.8567      -3664.2784      1228.8001      272.79656     -16.212391    
   2460000   297.32395     -3675.0063      1215.3542      199.14661     -24.680324    
   2465000   300.77643     -3673.6289      1205.3148      221.35811      13.544442    
   2470000   305.05958     -3687.6743      1238.8379      279.13763      1.1357138    
   2475000   297.91105     -3679.3546      1219.6543      204.34845     -24.27923     
   2480000   309.02098     -3704.0706      1218.692       278.01987      27.371692    
   2485000   297.94042     -3713.831       1236.2097      186.69011      33.755682    
   2490000   297.06896     -3687.243       1194.3182      163.59357     -1.7272839    
   2495000   303.79928     -3697.5971      1273.5356      292.64232      14.759365    
   2500000   301.87659     -3668.5001      1184.3289      215.33912     -0.8921442    
   2505000   297.11771     -3664.3296      1240.932       233.55676      10.275721    
   2510000   303.29778     -3683.0739      1163.1192      192.26446     -17.636862    
   2515000   299.95793     -3679.0252      1202.6598      205.98747     -16.033968    
   2520000   297.68018     -3691.5888      1215.7578      186.15321      4.4263574    
   2525000   300.86745     -3651.048       1219.6711      259.10929      3.9168802    
   2530000   300.98525     -3629.8847      1254.8679      316.5228       16.092412    
   2535000   298.67908     -3656.7533      1157.5874      171.75091     -21.741424    
   2540000   302.72563     -3670.9103      1198.6548      234.84732      1.3869954    
   2545000   299.10183     -3677.8944      1213.5198      210.32256     -8.9398534    
   2550000   305.0785      -3647.432       1216.3955      297.10664     -6.8121005    
   2555000   301.97234     -3664.2749      1224.6464      260.73796      10.717289    
   2560000   307.64779     -3678.3302      1242.6139      315.4025       2.852983     
   2565000   292.03457     -3713.3813      1216.0715      114.18893      22.142877    
   2570000   302.03533     -3682.716       1206.0903      224.30418     -0.66746784   
   2575000   308.82342     -3656.6259      1195.9314      300.93748      12.502087    
   2580000   302.16746     -3665.112       1204.792       241.79151     -4.0110165    
   2585000   296.61504     -3672.2851      1213.6289      193.80304      3.5005893    
   2590000   298.8319      -3690.0239      1219.4714      201.73087      19.758705    
   2595000   289.57449     -3678.1403      1250.6699      162.02927     -23.640001    
   2600000   297.50791     -3684.8373      1232.2373      207.84369      10.145779    
   2605000   295.89084     -3679.4282      1183.7032      150.25819      4.3976928    
   2610000   300.75232     -3696.2572      1177.5339      170.73324     -9.1461165    
   2615000   300.10241     -3674.7607      1219.009       227.8931      -16.486243    
   2620000   305.23359     -3652.2858      1192.2476      269.49181      4.0947006    
   2625000   305.01742     -3666.8461      1200.343       261.09391      21.493811    
   2630000   308.82994     -3654.4929      1252.1725      359.36978      32.737769    
   2635000   302.481       -3645.884       1171.1381      230.16937      21.151366    
   2640000   306.04161     -3622.9072      1226.6948      340.54328     -2.1455201    
   2645000   305.22512     -3622.1534      1143.4666      250.7676       15.309347    
   2650000   301.17452     -3635.3933      1225.6147      283.4534      -6.2185535    
   2655000   298.07183     -3636.1096      1217.3778      246.75476      33.02639     
   2660000   300.93041     -3636.9856      1228.7344      282.79797     -4.1842931    
   2665000   297.18253     -3631.999       1217.8657      243.40066      1.2361714    
   2670000   297.08493     -3629.7277      1169.503       196.43651     -15.65591     
   2675000   298.23532     -3635.7712      1293.4328      324.61004     -10.076957    
   2680000   290.79411     -3676.892       1209.9349      133.44893      14.535657    
   2685000   305.77737     -3639.0757      1173.5308      268.84795      16.257508    
   2690000   302.63704     -3629.7505      1239.5271      316.08724     -5.6291343    
   2695000   299.31641     -3653.0027      1218.4469      242.06038      0.42073437   
   2700000   301.41134     -3594.7034      1199.5849      300.23143     -8.6645136    
   2705000   303.69417     -3612.6672      1229.2628      332.35953     -28.733672    
   2710000   301.52563     -3615.6236      1236.2349      316.98315     -0.60295899   
   2715000   306.98077     -3666.701       1230.6342      309.08737      16.255207    
   2720000   298.06824     -3624.5861      1193.8535      234.72187     -9.5043078    
   2725000   306.83207     -3644.2489      1198.488       298.06335     -0.3749645    
   2730000   305.44582     -3678.7903      1188.0718      240.70942      0.22089502   
   2735000   293.34072     -3619.5671      1216.7637      220.37546      18.641453    
   2740000   302.49823     -3641.3272      1173.3693      237.11139      23.425694    
   2745000   291.03183     -3635.2316      1196.3091      163.60928     -11.743527    
   2750000   311.09602     -3629.5967      1269.0482      421.40594      0.35266629   
   2755000   308.00104     -3629.432       1119.2458      244.09161     -33.322733    
   2760000   291.87393     -3634.7392      1206.5809      181.90391      24.433709    
   2765000   307.12593     -3642.053       1229.2508      333.65002      5.8305016    
   2770000   291.35262     -3641.551       1201.1214      164.97091      7.0901842    
   2775000   303.20097     -3630.6962      1228.0956      308.7529      -2.4359894    
   2780000   293.57562     -3637.4069      1235.9907      223.86332     -9.5052905    
   2785000   296.13049     -3669.4068      1208.7102      187.42964      18.501377    
   2790000   298.50659     -3680.9383      1252.6489      241.0849       8.3401305    
   2795000   302.84486     -3707.5581      1201.9583      202.56918     -5.8991629    
   2800000   297.55208     -3680.8705      1176.6784      156.64666     -21.763093    
   2805000   300.2537      -3698.4621      1221.028       207.56366      13.156816    
   2810000   309.90676     -3680.0585      1199.8378      291.09876     -7.0804968    
   2815000   303.47012     -3665.1519      1213.0879      261.69631      20.300642    
   2820000   302.19718     -3689.5462      1239.2684      252.09936      25.006073    
   2825000   297.09691     -3692.7204      1244.2048      208.25281     -6.5594113    
   2830000   297.80823     -3664.3598      1215.3416      214.11105      0.33937218   
   2835000   301.87328     -3683.9299      1245.7776      261.32848      2.2023737    
   2840000   300.74123     -3653.8706      1226.8006      262.28738     -19.763165    
   2845000   300.97808     -3666.4756      1253.2622      278.26207      5.7698319    
   2850000   303.33978     -3645.5944      1189.3525      256.3529       14.65827     
   2855000   296.30118     -3684.1728      1212.4083      177.88812     -1.6694238    
   2860000   296.75393     -3704.6571      1223.9042      172.94836     -18.781972    
   2865000   295.0539      -3697.3284      1249.7795      190.94999      2.724394     
   2870000   295.47517     -3690.6219      1178.419       130.06319     -6.2042316    
   2875000   299.80488     -3715.1713      1241.1799      206.99279      13.289203    
   2880000   312.26269     -3707.7863      1196.1733      280.77431      11.405134    
   2885000   299.74579     -3658.994       1228.2329      249.69475      12.874094    
   2890000   298.08555     -3680.0664      1243.6265      229.16926      6.9716213    
   2895000   300.29961     -3715.7628      1230.0412      199.68665     -7.3532565    
   2900000   302.10637     -3681.4706      1202.637       222.73156     -7.3541063    
   2905000   293.76136     -3670.8005      1219.9752      176.11513      8.724521     
   2910000   293.95331     -3697.3121      1205.4371      136.78194     -7.1768861    
   2915000   300.92471     -3707.9441      1195.744       178.79812      13.496367    
   2920000   300.2848      -3723.6587      1238.597       200.21411      28.333137    
   2925000   297.42037     -3696.2329      1178.3615      141.78943      13.530776    
   2930000   304.27212     -3697.3232      1231.191       254.80008      9.2345441    
   2935000   305.18633     -3653.8088      1220.38        295.67869      28.452141    
   2940000   303.44511     -3707.8265      1192.5439      198.25399      23.555061    
   2945000   299.82337     -3677.9506      1177.4835      180.68237     -19.065592    
   2950000   298.3167      -3667.9853      1191.0956      190.78649      6.1985406    
   2955000   303.36857     -3704.0698      1210.5489      219.33141      10.448593    
   2960000   301.51818     -3673.1484      1212.2272      235.38401      2.3130163    
   2965000   298.12011     -3683.4496      1249.2369      231.70556      15.3264      
   2970000   299.48612     -3664.6865      1244.1371      257.58431     -16.579409    
   2975000   295.07886     -3651.5472      1233.7835      220.95845     -6.8582606    
   2980000   302.34482     -3646.8267      1206.7263      263.59708     -18.8804      
   2985000   305.42207     -3708.2605      1258.8753      281.8303      -7.3626934    
   2990000   303.83753     -3698.4785      1208.4759      227.04328     -26.334799    
   2995000   292.81435     -3663.6484      1224.9583      179.78179     -21.487968    
   3000000   300.92411     -3681.7203      1188.0256      197.29814     -17.966485    
   3005000   297.95938     -3704.826       1207.6535      167.30837      24.683461    
   3010000   300.71571     -3661.6249      1209.1997      236.70401     -7.6907372    
   3015000   298.88056     -3687.7574      1193.4163      178.37743     -26.112562    
   3020000   302.73225     -3691.0703      1241.5052      257.59689     -35.433423    
   3025000   300.19861     -3695.3856      1227.3528      216.47231      8.1760914    
   3030000   299.44517     -3723.6211      1213.7877      167.93409     -7.1179495    
   3035000   295.75487     -3689.7451      1180.0563      135.07847     -12.654725    
   3040000   309.27721     -3722.5643      1189.9097      233.03516     -13.823863    
   3045000   301.15285     -3716.7619      1177.4686      153.74506      18.023898    
   3050000   294.50456     -3688.0053      1199.0564      144.63755     -13.807223    
   3055000   296.87625     -3729.6579      1190.9264      116.06365      25.822702    
   3060000   303.38879     -3721.546       1219.3792      210.86623      13.469269    
   3065000   299.63776     -3754.2913      1222.4419      147.64027      13.452385    
   3070000   295.80803     -3732.5367      1179.3831      92.08911      -7.618691     
   3075000   296.06307     -3736.6651      1262.0562      172.91442     -27.791556    
   3080000   308.31774     -3716.5613      1236.6433      277.19182      11.039787    
   3085000   301.95425     -3712.7735      1192.7007      180.132       -2.1405403    
   3090000   305.58221     -3721.4076      1186.1508      197.3908       24.974397    
   3095000   304.31926     -3746.6535      1188.018       162.71821      25.552354    
   3100000   302.90462     -3751.5518      1228.5947      185.74633     -17.573255    
   3105000   302.89982     -3749.5903      1220.2949      179.36511     -8.1536975    
   3110000   299.18495     -3746.7998      1251.3251      179.96587      17.42371     
   3115000   301.14373     -3746.2203      1180.4963      127.23288     -17.575789    
   3120000   293.45733     -3693.9489      1261.4983      191.77103     -17.053269    
   3125000   306.04816     -3756.3192      1183.0811      163.57622      23.904848    
   3130000   302.3873      -3732.3988      1209.8719      181.5504      -8.0375317    
   3135000   302.60178     -3740.9062      1224.0272      189.11627     -4.8863441    
   3140000   303.88178     -3722.4864      1247.4961      242.45134      0.30927015   
   3145000   302.33365     -3710.1399      1217.0845      210.54217     -14.922687    
   3150000   289.01599     -3737.5556      1194.3738      41.32347      -5.9608222    
   3155000   298.00289     -3760.9985      1206.4716      110.34311      11.107336    
   3160000   301.07085     -3722.388       1200.0427      169.95978     -6.1378107    
   3165000   300.52111     -3747.4787      1241.3906      181.30098     -4.5944347    
   3170000   300.58155     -3726.4043      1235.7991      197.3243      -12.472209    
   3175000   301.8951      -3725.9794      1155.9619      129.65839      11.841643    
   3180000   297.51403     -3727.8283      1186.5064      119.17652      19.014453    
   3185000   297.6732      -3740.9864      1203.7597      124.69501     -10.207943    
   3190000   308.90338     -3720.1895      1210.214       252.37141      15.067834    
   3195000   296.33913     -3745.3199      1238.526       143.19814     -5.5272515    
   3200000   303.48268     -3749.489       1270.8151      235.19876      10.838085    
   3205000   298.13389     -3723.9422      1190.0183      132.11758      6.3393399    
   3210000   305.61801     -3710.6835      1193.3236      215.60788      6.2323       
   3215000   301.337       -3745.3041      1239.1527      188.53359      13.950359    
   3220000   295.86932     -3750.4062      1173.2391      68.623566     -8.6561265    
   3225000   294.99878     -3738.4176      1200.8182      100.4066      -12.899885    
   3230000   296.3601      -3708.4307      1195.4111      137.16        -15.419406    
   3235000   302.10027     -3712.9444      1220.2501      208.81623      17.202372    
   3240000   303.72935     -3734.4025      1220.8674      202.54345      13.40009     
   3245000   305.17815     -3718.6395      1213.3809      223.77565      10.055804    
   3250000   300.72901     -3751.678       1242.01        179.58025      14.120105    
   3255000   297.26183     -3751.972       1190.9597      97.230793      10.311212    
   3260000   301.85522     -3740.8201      1233.7134      192.21258      11.376484    
   3265000   290.78738     -3764.8787      1188.6018      24.069024     -11.196123    
   3270000   304.37019     -3750.2728      1247.0109      218.54732     -21.123404    
   3275000   298.13402     -3716.2773      1221.0388      170.80419      18.659892    
   3280000   304.16094     -3749.4437      1200.4646      170.9588      -12.164332    
   3285000   302.83322     -3766.1237      1206.1868      148.12799      11.663402    
   3290000   300.78358     -3721.7474      1185.8554      153.84418      21.775771    
   3295000   300.97796     -3747.7908      1172.202       115.88561      11.679361    
   3300000   301.32811     -3757.5745      1210.4187      147.44981     -19.216155    
   3305000   292.16828     -3730.0174      1195.976       78.653007     -24.961322    
   3310000   303.58809     -3763.8406      1187.3097      138.28444      22.542032    
   3315000   300.22379     -3736.2727      1237.2275      185.68509      4.0605117    
   3320000   308.82327     -3754.633       1243.2479      250.24546      13.050789    
   3325000   295.27702     -3761.6024      1215.3208      94.212528      20.835144    
   3330000   288.51945     -3720.1535      1212.7342      72.645703     -12.725014    
   3335000   309.26218     -3776.4393      1248.5946      237.71074     -17.117833    
   3340000   295.11631     -3742.5581      1216.2436      112.74253      5.0584147    
   3345000   297.30586     -3792.262       1225.0723      91.447184     -5.6741685    
   3350000   303.68669     -3759.5813      1218.1887      174.30438      17.092201    
   3355000   305.94586     -3756.6276      1227.4968      206.76867      30.322747    
   3360000   291.89227     -3751.1654      1193.8085      52.869427      4.87957      
   3365000   306.44495     -3761.1303      1152.7791      132.01128     -6.2948629    
   3370000   295.52159     -3748.1441      1190.5594      85.096549      8.0495006    
   3375000   301.90269     -3719.8901      1212.5156      192.36925     -0.092600977  
   3380000   300.63735     -3757.4047      1233.0549      164.07874      7.8686804    
   3385000   301.7347      -3770.5312      1228.4561      156.16642      1.9694351    
   3390000   298.97056     -3717.5046      1202.7903      158.80895     -46.110182    
   3395000   302.2364      -3746.1068      1178.7249      135.34598      6.462802     
   3400000   297.39772     -3749.2019      1230.1978      140.45423     -17.363773    
   3405000   300.47257     -3721.9641      1231.1933      196.18418      18.5198      
   3410000   298.72399     -3714.9623      1184.9621      141.3182       24.321933    
   3415000   295.63713     -3735.3498      1230.8211      139.18572     -5.610795     
   3420000   307.4585      -3723.5403      1239.8734      265.75919      10.553377    
   3425000   299.33337     -3697.5004      1206.3182      185.58552     -5.3312587    
   3430000   300.01235     -3701.1208      1196.4259      178.14451      7.014263     
   3435000   299.03692     -3715.965       1231.6934      189.84523     -13.137868    
   3440000   302.78577     -3707.0476      1227.2599      227.853       -33.500758    
   3445000   306.93293     -3700.7717      1241.7147      285.66922      2.58103      
   3450000   299.57721     -3695.0279      1221.5099      205.4303       7.2791429    
   3455000   305.75964     -3715.0985      1207.1106      226.24632      25.721661    
   3460000   301.66231     -3741.127       1207.6203      164.08737      18.376805    
   3465000   306.66247     -3711.3827      1190.9123      221.8373       12.22049     
   3470000   308.39841     -3701.6889      1230.7686      286.91095      2.1623998    
   3475000   303.78685     -3687.9925      1226.8134      255.4136       5.3448107    
   3480000   309.69051     -3705.4476      1206.1515      270.08968      20.671434    
   3485000   302.3404      -3723.8965      1239.0063      218.76765      0.93415999   
   3490000   303.00063     -3723.3668      1212.9112      199.10641      26.025634    
   3495000   296.73671     -3702.862       1212.4858      163.171        12.310654    
   3500000   296.2646      -3718.1275      1208.5228      139.72078      12.249279    
   3505000   297.64679     -3710.9883      1207.8093      158.5066      -25.461859    
   3510000   296.20654     -3728.5121      1220.4747      140.7688      -19.779068    
   3515000   298.37474     -3732.9137      1240.7947      176.07629     -11.01567     
   3520000   296.59676     -3724.4328      1206.1619      134.02481      35.298796    
   3525000   297.82055     -3730.2299      1222.1229      155.13245     -19.07544     
   3530000   307.73502     -3741.181       1222.064       232.78189     -21.953552    
   3535000   301.94886     -3727.5582      1179.1538      151.75225      15.510729    
   3540000   294.91291     -3725.4289      1241.892       153.70121     -3.067657     
   3545000   303.42565     -3703.2612      1192.2931      202.39452     -31.462754    
   3550000   299.29901     -3721.0455      1195.1358      150.55078     -0.92731927   
   3555000   292.7524      -3708.3213      1241.3598      150.95637     -25.439952    
   3560000   294.36501     -3716.2034      1218.0302      134.1653       12.244323    
   3565000   305.14913     -3754.6888      1222.2631      196.34911      5.0052035    
   3570000   300.35622     -3724.6545      1269.9906      231.25056      1.4753793    
   3575000   287.54855     -3720.9326      1193.3731      43.823348      3.7521879    
   3580000   296.56752     -3724.3907      1215.988       143.63157     -3.2453499    
   3585000   304.14419     -3723.1721      1254.5594      251.17546     -1.482387     
   3590000   301.51847     -3725.9901      1236.2862      206.60402      8.7088759    
   3595000   297.30794     -3717.7975      1257.3685      198.22642     -5.774385     
   3600000   297.87936     -3713.0674      1206.3756      157.07359      10.477231    
   3605000   300.99689     -3749.8759      1236.2317      177.99942      19.212266    
   3610000   298.47717     -3744.9111      1212.8863      137.08643     -7.3182478    
   3615000   306.8025      -3756.6671      1195.3006      182.19348      18.438896    
   3620000   300.41898     -3766.576       1197.1075      117.00723     -4.3818209    
   3625000   305.09657     -3772.1281      1147.1267      103.30334      17.003006    
   3630000   298.9228      -3748.2413      1181.9621      106.81713     -10.026852    
   3635000   305.06109     -3754.8771      1225.8463      198.95675      14.388352    
   3640000   293.59892     -3740.5291      1194.6494      79.608145     -10.093635    
   3645000   303.21893     -3741.426       1168.6003      138.68838      29.117656    
   3650000   295.42289     -3751.8958      1189.6349      79.537656     -17.780319    
   3655000   304.41033     -3772.0701      1208.3121      158.41021      1.062896     
   3660000   295.93541     -3733.6905      1181.8289      94.52009      -6.6113139    
   3665000   299.32537     -3763.7855      1205.5565      118.46717      0.81761163   
   3670000   296.0849      -3759.6065      1182.808       70.92006      -15.527183    
   3675000   300.15335     -3774.9849      1200.7399      109.85537      17.808836    
   3680000   304.66504     -3743.2654      1232.0101      213.19053     -4.1357136    
   3685000   302.84245     -3750.473       1187.6831      145.35753     -16.50509     
   3690000   299.07634     -3760.4529      1182.1805      96.196853     -15.32372     
   3695000   298.28366     -3757.4272      1219.393       129.34663      7.5247582    
   3700000   300.96636     -3733.1578      1195.5953      153.80811     -1.5705709    
   3705000   303.3747      -3749.8315      1171.9383      135.01392      17.539648    
   3710000   305.50959     -3728.0853      1195.405       199.31794      30.049658    
   3715000   302.66066     -3715.3413      1200.8609      192.04136      4.3941325    
   3720000   304.74375     -3710.1686      1181.175       196.15606      15.692149    
   3725000   304.50544     -3718.9684      1209.7655      213.8158      -31.662109    
   3730000   304.44551     -3744.7951      1211.7606      189.44813     -8.7262324    
   3735000   307.80628     -3736.7063      1223.3505      239.18033      0.20421261   
   3740000   293.98665     -3747.0664      1235.2182      117.10695     -13.910375    
   3745000   296.01168     -3745.5051      1204.413       105.97165      15.775809    
   3750000   291.22121     -3753.5852      1208.8196      59.459749     -16.083914    
   3755000   297.78391     -3742.9403      1266.3117      186.28321     -5.4933667    
   3760000   295.53098     -3750.9237      1176.0127      67.854281     -30.899475    
   3765000   303.61264     -3768.3621      1152.116       98.788686      0.44367589   
   3770000   303.4355      -3790.2478      1230.2524      153.45545     -0.17518534   
   3775000   294.12463     -3778.0087      1234.1162      86.296443     -8.9815728    
   3780000   301.84335     -3820.2678      1227.8302      106.77544     -20.787451    
   3785000   300.49001     -3798.4827      1219.3715      107.9998       5.8501185    
   3790000   305.1835      -3814.8853      1128.0366      42.23348      -14.113092    
   3795000   300.28722     -3788.5168      1205.8215      102.60216     -1.0987142    
   3800000   297.7653      -3791.7761      1136.0935      7.0628241      4.8399643    
   3805000   297.18907     -3795.0822      1217.3176      79.827833      34.781327    
   3810000   289.98919     -3752.512       1227.6016      68.297753     -16.650538    
   3815000   292.64867     -3782.0747      1150.7533     -14.331113      17.280976    
   3820000   302.78431     -3761.5909      1224.0537      170.09042      19.32138     
   3825000   308.53524     -3798.6164      1278.2128      238.65125      13.006538    
   3830000   311.1291      -3786.461       1236.5589      232.34825      4.867106     
   3835000   296.38629     -3788.5351      1197.0959      58.974445      23.723272    
   3840000   299.72743     -3788.0252      1246.6563      138.92276      12.964461    
   3845000   298.55522     -3787.7473      1193.5451      75.606985      12.57156     
   3850000   297.20315     -3780.0782      1186.3826      64.022837      35.229772    
   3855000   301.60777     -3785.302       1220.2025      132.00686      10.917284    
   3860000   291.00794     -3793.5561      1233.9192      42.681328      35.782353    
   3865000   298.50899     -3784.0301      1205.3463      90.711984     -23.722239    
   3870000   304.36017     -3788.6771      1236.0838      169.12621      7.7822744    
   3875000   306.36497     -3761.673       1195.8235      173.79787     -16.54777     
   3880000   289.94949     -3769.7107      1173.2673     -3.5904132      10.834042    
   3885000   302.77185     -3754.5166      1188.5925      141.59198      18.791448    
   3890000   303.93141     -3731.5863      1179.4746      165.77368      9.0913945    
   3895000   294.57608     -3773.7219      1225.6162      86.120364     -26.348268    
   3900000   303.1309      -3767.6892      1235.0737      178.11146      11.298852    
   3905000   297.76037     -3738.8265      1158.2655      82.140238      10.41808     
   3910000   300.54848     -3788.9312      1203.0856      101.78817      21.441006    
   3915000   299.38627     -3784.9809      1245.228       137.48787     -6.0425328    
   3920000   303.64284     -3789.7971      1205.9362      131.44407     -2.8056733    
   3925000   304.48908     -3795.9529      1195.4002      122.3196       7.2189346    
   3930000   304.31477     -3802.5833      1235.8455      154.5758      -11.444338    
   3935000   308.08027     -3802.28        1185.1504      137.85666     -15.819756    
   3940000   300.57095     -3754.5654      1205.1928      138.46216     -17.424039    
   3945000   300.19217     -3716.0455      1238.6088      207.01079      14.984227    
   3950000   301.8243      -3751.6172      1230.6328      178.05835      5.1485454    
   3955000   302.20124     -3746.3689      1215.6412      171.68588     -7.5285759    
   3960000   299.53307     -3764.2557      1166.6353      80.933131      2.4533295    
   3965000   293.87263     -3755.2436      1193.6058      66.297654      12.542428    
   3970000   293.60089     -3745.7971      1194.336       74.04426      -15.100534    
   3975000   299.19163     -3775.1274      1229.0635      129.43636     -0.47768511   
   3980000   299.33537     -3755.6388      1234.8775      156.02436     -14.791618    
   3985000   303.58721     -3772.3894      1191.8416      134.25965     -4.3063854    
   3990000   294.74358     -3711.6708      1202.7426      126.79572      1.3351839    
   3995000   296.23939     -3731.8996      1219.0633      136.26377      29.341354    
   4000000   299.87861     -3754.3028      1254.0527      181.39341      11.074822    
   4005000   306.27169     -3721.4695      1238.9573      256.30098     -18.145551    
   4010000   301.46872     -3725.1136      1217.0388      187.78818     -10.995821    
   4015000   299.18962     -3720.0841      1247.0423      202.44053      11.352451    
   4020000   298.1422      -3721.0369      1255.0753      200.15411     -13.92425     
   4025000   300.01233     -3751.6671      1172.2538      103.42598      1.0135977    
   4030000   296.96494     -3721.7937      1207.0721      140.86657      4.2271557    
   4035000   296.18416     -3735.3695      1170.8217      84.058338     -1.2723367    
   4040000   303.76411     -3747.7128      1223.317       191.9935      -4.4383657    
   4045000   309.19738     -3758.2717      1233.5486      240.25286      8.2782978    
   4050000   302.43824     -3712.3467      1190.0978      182.28399     -5.0563624    
   4055000   301.52631     -3733.2231      1249.4146      212.56947      6.027904     
   4060000   303.41195     -3771.0628      1201.3024      143.47975     -15.876105    
   4065000   306.06075     -3750.9946      1214.5635      200.49583     -18.649454    
   4070000   305.98597     -3746.7639      1227.7623      217.25655      3.0898936    
   4075000   295.19069     -3740.5911      1202.9167      102.04776      6.1312701    
   4080000   302.33123     -3747.2857      1185.7509      142.04103      4.1258064    
   4085000   296.81626     -3730.1001      1193.1327      117.29117     -20.018983    
   4090000   296.66181     -3732.7204      1249.5198      169.67685      14.05384     
   4095000   301.72109     -3710.6201      1202.7457      190.24534     -4.0518212    
   4100000   301.24044     -3731.6069      1211.1168      173.33151     -2.3879619    
   4105000   299.67466     -3710.4629      1213.6853      183.04211      10.09339     
   4110000   295.78485     -3702.5281      1247.9475      190.45482      27.00116     
   4115000   295.87375     -3712.075       1186.2757      120.03107      5.9215657    
   4120000   299.16918     -3722.1684      1177.848       130.97909      28.663641    
   4125000   296.14587     -3722.832       1222.718       148.14975     -12.035619    
   4130000   303.31573     -3709.167       1262.0688      265.2815       1.0170945    
   4135000   302.36558     -3705.3464      1234.1069      232.64363     -7.452525     
   4140000   297.06433     -3709.8198      1229.9455      176.60271      12.581941    
   4145000   300.48811     -3727.8862      1193.5266      152.73428     -1.8491955    
   4150000   295.23347     -3735.4994      1198.4901      103.09545      41.202567    
   4155000   303.71677     -3743.3983      1191.5909      164.15867     -3.324793     
   4160000   303.66187     -3664.6842      1198.6841      249.47498      11.149311    
   4165000   293.80659     -3673.8071      1226.9111      180.44887      22.357935    
   4170000   289.82248     -3694.2248      1184.2908      81.783275     -20.007794    
   4175000   297.37421     -3702.5067      1196.0124      152.75376     -10.41916     
   4180000   295.96939     -3724.6322      1216.759       138.81246      1.7031345    
   4185000   300.27277     -3743.6511      1238.8227      180.33981     -8.5414496    
   4190000   301.78576     -3736.2813      1148.6574      111.07417     -30.312871    
   4195000   297.4601      -3736.7305      1169.9684      93.254119      4.0973856    
   4200000   297.46157     -3718.1838      1226.6302      168.47569     -11.450173    
   4205000   295.44722     -3733.6039      1192.623       101.03524      16.060466    
   4210000   294.51388     -3737.3117      1244.4395      140.79763      14.725198    
   4215000   302.45275     -3744.9037      1200.4082      160.167       -13.602944    
   4220000   305.92975     -3760.572       1216.9262      192.10969      35.323212    
   4225000   303.06998     -3706.2611      1194.6465      198.56749     -20.039796    
   4230000   296.9573      -3756.1531      1230.1561      129.52283      7.4193124    
   4235000   309.22836     -3720.5904      1230.2503      274.91297     -10.334912    
   4240000   305.34708     -3745.9654      1207.1806      191.76011      27.158613    
   4245000   298.62392     -3750.0829      1204.0249      124.36561      3.445853     
   4250000   295.09309     -3767.0574      1214.3142      86.106196     -0.37181178   
   4255000   296.96011     -3753.7975      1224.1576      125.90516      2.4474489    
   4260000   299.90773     -3768.5916      1212.1677      125.47999     -13.828988    
   4265000   291.80489     -3761.4538      1191.1949      39.185908      5.1475006    
   4270000   301.20995     -3765.6687      1246.8517      174.73198     -25.690496    
   4275000   299.44365     -3792.7826      1243.1289      128.10033      20.629185    
   4280000   300.3773      -3752.1924      1196.5907      130.50139     -16.425589    
   4285000   303.50857     -3782.5909      1229.7752      161.2885       33.442913    
   4290000   298.99532     -3781.0256      1256.1005      148.81964     -17.742857    
   4295000   302.20416     -3782.1151      1209.2283      129.55279      0.38173096   
   4300000   302.3346      -3777.3243      1197.4355      123.71725      14.624441    
   4305000   295.84959     -3754.0326      1184.711       76.292782      10.263303    
   4310000   298.7914      -3775.0906      1161.4934      58.323986     -10.920052    
   4315000   298.86173     -3772.6253      1264.5013      164.42611     -6.6063742    
   4320000   300.73065     -3761.7526      1230.37        157.88027      0.40794588   
   4325000   307.87747     -3792.5978      1249.8472      210.42214      4.0468113    
   4330000   299.76484     -3774.561       1216.0117      122.07675     -9.5624744    
   4335000   292.67975     -3795.9831      1216.6728      37.957915     -9.402579     
   4340000   297.97617     -3845.1698      1204.1784      23.639692     -18.237899    
   4345000   316.78849     -3786.9081      1203.7684      249.71918      37.311795    
   4350000   299.20535     -3803.8949      1203.1178      74.84587       17.88645     
   4355000   295.12514     -3809.4271      1212.1312      41.840036     -9.9501308    
   4360000   308.16992     -3795.1407      1228.7719      189.4192       14.023509    
   4365000   294.75695     -3832.4394      1217.1446      20.548601      6.3748462    
   4370000   300.8347      -3810.939       1204.5481      83.802436     -4.2008119    
   4375000   299.80292     -3812.4987      1142.9512      11.419159      14.23254     
   4380000   300.82392     -3814.6259      1189.7249      65.195976     -2.8438711    
   4385000   295.10786     -3803.5632      1231.2606      66.678853      7.8782923    
   4390000   297.90424     -3795.3748      1218.5202      87.133275     -0.65365513   
   4395000   301.19569     -3809.538       1241.9804      125.8638      -16.841239    
   4400000   299.65589     -3803.0181      1229.2112      105.845        0.92479935   
   4405000   296.45058     -3768.0808      1188.1801      71.087942     -0.77549973   
   4410000   304.41896     -3777.8447      1253.0111      197.41173     -5.8215662    
   4415000   293.01875     -3792.2063      1238.3864      66.479842      14.450379    
   4420000   305.8889      -3796.4488      1184.5094      123.45074      25.930739    
   4425000   295.4859      -3830.0359      1215.5673      27.89345       23.364917    
   4430000   298.36565     -3783.391       1181.7175      66.440487     -20.712126    
   4435000   307.38788     -3802.161       1228.8796      175.5132      -31.548923    
   4440000   297.02296     -3839.4507      1210.8516      27.508         3.4728829    
   4445000   309.8208      -3859.2007      1198.7141      110.06423      18.678484    
   4450000   306.86715     -3829.0697      1177.5185      92.586925     -5.7181343    
   4455000   298.2981      -3856.537       1224.0476      35.020495     -0.81833912   
   4460000   304.71918     -3862.6575      1200.9877      63.260123      11.754232    
   4465000   309.19682     -3852.2477      1225.9174      138.64062     -11.618213    
   4470000   305.83254     -3821.3165      1172.757       86.326536      7.0742111    
   4475000   301.23919     -3826.6893      1196.3611      63.482196     -0.12244464   
   4480000   301.44386     -3835.7049      1216.7902      76.726018      7.8225442    
   4485000   299.56304     -3831.9118      1233.8648      80.774524     -15.819862    
   4490000   300.93618     -3832.4738      1213.3536      71.980657     -39.447531    
   4495000   302.80464     -3848.63        1223.4896      82.668943     -0.27006941   
   4500000   300.94417     -3802.8792      1205.8625      94.155511      6.5145706    
   4505000   301.57357     -3874.6473      1213.0411      35.194313      9.4019573    
   4510000   299.49296     -3856.6752      1218.5577      40.077428      38.947119    
   4515000   295.63284     -3863.5945      1198.3695     -21.548975     -9.0489943    
   4520000   296.13377     -3848.5201      1193.7682     -6.596295      -8.9474225    
   4525000   299.65958     -3829.0491      1198.9052      49.54091       5.2418774    
   4530000   295.84011     -3837.2934      1188.4861     -3.2777647     -7.209157     
   4535000   300.28467     -3822.3648      1247.8914      110.80129     -1.9925286    
   4540000   294.02419     -3835.4187      1156.0039     -50.124017      20.373003    
   4545000   296.74562     -3836.575       1213.3874      30.439345      14.133464    
   4550000   308.35084     -3831.8763      1273.4127      198.94231     -2.6518004    
   4555000   300.86475     -3816.9607      1172.9506      46.451908      17.596047    
   4560000   302.97897     -3828.4004      1184.6724      65.640214      30.814067    
   4565000   296.92584     -3799.4264      1240.6588      96.471011     -11.582277    
   4570000   298.67292     -3826.0245      1178.3358      23.173008      29.873036    
   4575000   301.16468     -3792.5439      1207.0926      107.69287      16.749992    
   4580000   296.8417      -3779.3995      1180.9341      56.020851      32.42755     
   4585000   294.01161     -3827.5577      1167.8524     -30.527078      6.5118218    
   4590000   295.82407     -3797.4913      1205.5729      53.467665     -14.208157    
   4595000   300.53178     -3789.2889      1203.0304      101.22591     -6.4595353    
   4600000   303.67095     -3799.0427      1186.9119      103.42546      11.882218    
   4605000   302.45787     -3773.0221      1198.1222      129.80847     -3.8501034    
   4610000   289.59165     -3810.1704      1228.5785      8.0612293     -3.5907367    
   4615000   303.07165     -3777.0062      1210.8507      144.04156      28.406283    
   4620000   296.85716     -3782.9835      1229.2083      100.84917      6.1284472    
   4625000   300.91795     -3777.3364      1194.5251      108.12646      12.896374    
   4630000   291.47892     -3787.5364      1240.6574      59.650794      23.294995    
   4635000   301.88907     -3770.1143      1210.7674      140.2751      -6.1133611    
   4640000   295.97214     -3740.7808      1192.4458      98.375204      12.3041      
   4645000   297.68144     -3756.3112      1216.5716      122.25593      24.324179    
   4650000   292.42536     -3735.4588      1190.8034      70.3379        4.4365765    
   4655000   296.27199     -3747.7497      1219.8672      121.50905     -10.831114    
   4660000   295.16591     -3746.0455      1247.3663      140.82145     -10.939272    
   4665000   311.59659     -3750.2031      1212.0562      248.28386     -13.928086    
   4670000   296.50657     -3732.1798      1241.9862      161.29566     -7.0137338    
   4675000   298.35928     -3746.2428      1219.7513      141.56548      16.619314    
   4680000   296.74765     -3711.4384      1216.6152      158.82191     -1.7438498    
   4685000   302.29385     -3688.0582      1253.3363      268.51979     -8.3062934    
   4690000   298.3529      -3726.0308      1209.694       151.66323     -8.0809031    
   4695000   294.83858     -3712.2179      1202.4743      126.82975     -17.198724    
   4700000   297.16339     -3717.8097      1193.4852      133.03831      1.4325085    
   4705000   307.38033     -3730.3371      1207.3856      225.77563     -4.1727266    
   4710000   300.98146     -3721.8195      1158.9532      128.63937     -14.65086     
   4715000   304.44218     -3746.1718      1228.7842      205.06535      26.443123    
   4720000   296.78876     -3738.4049      1254.1903      169.79816      2.0536405    
   4725000   297.89325     -3728.4707      1139.7014      75.120227      11.601591    
   4730000   296.26202     -3724.3969      1187.9703      112.87577      2.0816171    
   4735000   301.21907     -3740.3733      1220.1138      173.37092      19.819457    
   4740000   301.91586     -3746.447       1256.8338      210.2483       20.348013    
   4745000   299.00941     -3722.071       1247.8295      199.62923      21.817909    
   4750000   301.83031     -3722.8255      1211.4179      187.68886      6.9542148    
   4755000   297.6584      -3718.3196      1235.4921      178.96197     -3.3374943    
   4760000   301.47584     -3731.1088      1190.6383      155.45619      0.4715449    
   4765000   296.05751     -3746.3253      1219.3492      120.49753      10.212961    
   4770000   294.23944     -3717.4631      1219.4263      133.17881      18.130151    
   4775000   304.32425     -3728.3685      1218.3523      211.38221     -20.144589    
   4780000   304.1793      -3720.1344      1210.3949      210.3627       7.7747755    
   4785000   303.06833     -3759.0544      1219.9893      171.10231      22.425625    
   4790000   300.70803     -3707.3304      1185.9711      167.70118      16.117045    
   4795000   303.28019     -3721.1366      1209.212       200.13723     -5.1970111    
   4800000   292.95346     -3723.1111      1206.2208      102.82552      5.0160829    
   4805000   302.24909     -3703.3955      1202.7522      202.19805      5.4706681    
   4810000   300.05772     -3726.1844      1219.3965      176.45719     -10.075332    
   4815000   302.01859     -3757.2612      1193.041       136.55993     -18.467274    
   4820000   299.28763     -3728.3964      1264.0717      212.03398      9.3429879    
   4825000   291.89853     -3709.1258      1184.1381      85.294529     -18.059412    
   4830000   303.41437     -3754.1471      1260.188       219.30268      8.9987217    
   4835000   310.02008     -3741.7472      1230.038       260.62366      24.618139    
   4840000   296.4284      -3724.7626      1207.0318      133.0595      -2.0514156    
   4845000   302.65481     -3730.3847      1217.9641      194.04892      22.799541    
   4850000   304.2864      -3692.6537      1255.4002      283.80636      11.427586    
   4855000   299.09717     -3716.9515      1176.1262      133.8302      -0.56875332   
   4860000   300.60947     -3725.879       1168.667       130.96717     -0.34935003   
   4865000   294.33718     -3721.4945      1215.7569      126.35212     -14.280607    
   4870000   294.41642     -3689.5843      1152.014       95.227961      12.050832    
   4875000   298.88933     -3711.9433      1214.7551      175.60868      30.892878    
   4880000   297.42753     -3753.5205      1212.2494      118.45379      12.334666    
   4885000   302.23536     -3738.2272      1208.8096      173.30097     -5.7812438    
   4890000   298.13043     -3728.0887      1229.7138      167.63559      14.804192    
   4895000   293.41308     -3709.8508      1195.6285      109.60376     -0.30122384   
   4900000   300.05115     -3731.0381      1229.7673      181.91567     -2.7839473    
   4905000   299.40143     -3716.5088      1198.5967      159.46431      16.920579    
   4910000   299.87503     -3732.1953      1233.4528      182.86905     -5.8753505    
   4915000   305.61026     -3726.3165      1212.4357      219.01755     -2.4356579    
   4920000   298.47721     -3741.568       1228.0005      155.54418      11.046803    
   4925000   300.96218     -3743.4104      1197.1439      145.06671      3.5845935    
   4930000   298.7427      -3740.4352      1230.6553      161.70586      20.260254    
   4935000   294.31904     -3713.5075      1209.3929      127.81288      19.804168    
   4940000   296.83653     -3724.1869      1153.2122      83.465287     -5.6390469    
   4945000   302.48656     -3721.4375      1225.7506      209.27798      6.0096168    
   4950000   300.71881     -3718.2259      1164.689       135.62013      30.204159    
   4955000   300.25303     -3702.4027      1208.9657      191.55475     -0.17273792   
   4960000   301.90007     -3706.0068      1244.6465      238.35999      11.677948    
   4965000   291.97047     -3722.9618      1194.2023      82.166056     -13.173964    
   4970000   291.62503     -3715.9025      1186.0839      78.01794       3.1170064    
   4975000   305.42798     -3727.4393      1190.668       194.49712      10.831266    
   4980000   300.12813     -3734.7075      1193.53        142.69739      25.410572    
   4985000   303.23267     -3746.3761      1216.4625      181.72342      6.5775669    
   4990000   301.54082     -3721.4184      1256.5799      231.6692       18.252736    
   4995000   301.5783      -3719.2355      1222.9106      200.51805     -19.745264    
   5000000   306.1501      -3732.2834      1219.8347      225.27725      32.660853    
   5005000   290.46504     -3706.4294      1263.5931      154.62709     -4.3304383    
   5010000   292.67102     -3738.756       1253.9667      132.4008       1.9657309    
   5015000   294.14066     -3730.9997      1250.1588      149.49146     -19.564891    
   5020000   304.68063     -3704.5941      1196.6611      216.65226      5.5423657    
   5025000   292.7373      -3694.4849      1212.6011      135.89903     -21.271804    
   5030000   300.19849     -3738.6661      1240.2832      186.12118     -4.2622939    
   5035000   298.44535     -3730.6911      1205.124       143.25957      2.4010953    
   5040000   295.73541     -3730.3971      1241.6901      155.8862       6.1614993    
   5045000   303.01881     -3719.1661      1161.9429      152.50133      27.327255    
   5050000   296.81246     -3712.5123      1235.02        176.73241      8.3841311    
   5055000   297.00117     -3727.4702      1185.4513      113.89331     -25.918106    
   5060000   301.73281     -3734.3059      1195.6516      159.57023      19.636819    
   5065000   297.91768     -3753.6372      1173.8912      84.361994     -17.817481    
   5070000   297.6125      -3777.4177      1211.1063      95.067596     -0.80092633   
   5075000   308.40768     -3744.9234      1177.345       190.33575      2.8419385    
   5080000   286.11136     -3776.5875      1264.1601      46.103472     -12.317615    
   5085000   308.07619     -3770.4801      1181.33        165.79979     -10.045946    
   5090000   300.65095     -3732.5519      1251.3237      207.32198     -4.8019947    
   5095000   304.90349     -3733.6168      1181.887       174.84836      16.225857    
   5100000   299.05719     -3745.9201      1216.9991      145.37698      13.303602    
   5105000   306.27582     -3745.8036      1187.2772      180.32368      2.9149678    
   5110000   293.67572     -3774.2353      1217.3698      69.309093      4.3632282    
   5115000   298.96822     -3757.3489      1208.0669      124.22048      15.978446    
   5120000   303.71283     -3763.2823      1177.4284      130.07684      28.766891    
   5125000   297.26203     -3751.2874      1204.1659      111.12343      1.7710856    
   5130000   306.82914     -3771.3455      1199.0618      171.51453      8.1489979    
   5135000   303.12543     -3786.1346      1214.1762      138.71961     -25.199793    
   5140000   299.53939     -3820.2121      1209.1467      67.544618      23.300241    
   5145000   298.19047     -3777.4334      1195.9233      85.037338     -14.889318    
   5150000   297.6526      -3785.0628      1188.0308      64.705587     -36.537212    
   5155000   295.29998     -3801.5817      1194.2401      33.357783      17.216127    
   5160000   301.87649     -3823.8857      1232.9604      108.58408     -8.8772754    
   5165000   302.0944      -3800.0283      1242.0151      143.44484      20.501752    
   5170000   297.8013      -3805.8783      1237.7902      94.979183      0.96427503   
   5175000   293.76306     -3779.6417      1213.3776      60.691497      15.30656     
   5180000   303.43358     -3769.8057      1209.6761      153.3039      -1.1626455    
   5185000   293.83655     -3783.8326      1226.0199      69.800124      9.1877177    
   5190000   304.33322     -3778.5247      1179.183       122.13688      10.480873    
   5195000   301.60172     -3759.1642      1249.4567      187.34483      0.45121991   
   5200000   295.77326     -3792.9435      1208.7895      60.777691     -4.3635112    
   5205000   294.1831      -3770.1673      1164.8506      25.39513      -7.5471237    
   5210000   294.3239      -3768.3816      1206.73        70.319308      9.3734516    
   5215000   298.79722     -3765.0769      1217.454       124.3503      -20.129799    
   5220000   300.85957     -3781.1363      1209.8217      119.10103     -3.7086062    
   5225000   300.53332     -3754.1603      1173.4874      106.82527      0.47617284   
   5230000   299.00759     -3788.889       1164.6846      49.650004     -10.109817    
   5235000   300.87072     -3781.3405      1187.93        97.104923     -2.1410698    
   5240000   306.15423     -3771.7749      1156.7647      122.75266      2.0764678    
   5245000   300.04128     -3772.6486      1186.8509      97.300545     -11.041041    
   5250000   301.13906     -3744.1416      1182.9576      131.73094      7.564477     
   5255000   297.34392     -3801.2836      1219.064       76.757669      29.893075    
   5260000   301.44578     -3777.7265      1255.5648      173.49613      8.6989163    
   5265000   304.3448      -3785.718       1159.0843      94.948418      29.247106    
   5270000   296.54844     -3787.7453      1203.7514      67.869809      18.586738    
   5275000   297.79404     -3784.29        1189.4124      68.124881      1.6663518    
   5280000   306.19751     -3802.0717      1210.5828      146.66097      7.531215     
   5285000   297.91607     -3769.7314      1255.5679      149.93013     -20.756019    
   5290000   299.67571     -3775.3205      1270.3804      174.88895     -23.820548    
   5295000   305.44805     -3796.2894      1197.8374      132.99591      11.265196    
   5300000   301.3211      -3765.9035      1182.7126      111.35192      9.6537624    
   5305000   298.9654      -3750.5462      1182.0263      104.95736      16.486673    
   5310000   300.26128     -3750.2086      1170.3537      105.21065     -28.632124    
   5315000   302.53787     -3719.834       1211.367       196.95667      23.868972    
   5320000   298.53199     -3756.93        1224.8967      137.56816     -9.3748038    
   5325000   295.39891     -3724.2677      1251.649       168.96537     -10.016652    
   5330000   307.11094     -3746.7492      1153.6357      153.20463     -2.9450395    
   5335000   297.18833     -3797.2775      1235.6004      95.908776     -4.3501856    
   5340000   295.22684     -3759.0076      1198.7334      79.771225      38.759664    
   5345000   298.39805     -3790.2219      1195.9333      74.115119      17.266298    
   5350000   301.47137     -3801.7577      1245.4727      139.60169      41.777817    
   5355000   299.33563     -3806.9219      1194.6628      64.528913      20.622849    
   5360000   297.75083     -3800.1709      1212.6972      75.142298      11.734329    
   5365000   292.38143     -3801.8492      1224.7961      37.547445     -19.377291    
   5370000   303.12834     -3821.4861      1175.4644      64.6823        3.5486991    
   5375000   300.99794     -3800.7544      1247.788       138.68671      1.1527757    
   5380000   307.07173     -3796.8814      1258.2306      207.31669     -2.7066562    
   5385000   298.93815     -3794.6922      1236.0597      114.60103     -6.7262581    
   5390000   295.99003     -3783.8074      1212.6875      75.750309      10.439273    
   5395000   301.07322     -3776.6774      1165.5229      81.171727      6.0272696    
   5400000   297.04395     -3783.0889      1237.6864      110.89226      12.235996    
   5405000   299.99739     -3776.7709      1204.7914      110.7262       16.163145    
   5410000   301.24513     -3772.2081      1246.0835      167.73889     -9.9139042    
   5415000   304.22605     -3785.0069      1270.4254      205.93876      10.529023    
   5420000   301.46483     -3769.6902      1255.2893      181.42724     -2.4594044    
   5425000   297.76613     -3770.2906      1249.6833      142.1455      -7.611776     
   5430000   298.69909     -3800.1258      1187.4271      58.397076      17.889648    
   5435000   299.77643     -3761.7117      1198.7531      117.77115     -8.0215781    
   5440000   300.46443     -3801.0526      1186.8671      72.696729     -10.773733    
   5445000   307.97083     -3776.4358      1201.2736      178.84543      18.445891    
   5450000   298.77422     -3805.7108      1148.394       14.450734      2.2114014    
   5455000   308.87719     -3778.9635      1244.4194      227.56861     -17.499069    
   5460000   297.38914     -3793.7263      1214.929       80.584261     -11.156255    
   5465000   292.92176     -3773.2499      1202.0286      48.211009     -2.7754003    
   5470000   297.08997     -3760.133       1192.4445      89.01783      -7.3293294    
   5475000   302.42734     -3776.8437      1190.3759      117.96756     -10.013649    
   5480000   308.05455     -3809.1794      1182.9347      128.51155      16.205598    
   5485000   299.47913     -3769.9324      1196.9928      105.13164      7.3503085    
   5490000   300.58279     -3780.5704      1189.9035      97.273672      5.2738822    
   5495000   298.74916     -3794.6973      1202.6597      79.505857      14.807977    
   5500000   300.86085     -3811.574       1164.8077      43.660798     -2.2251659    
   5505000   297.21618     -3802.0845      1199.6815      55.431847      43.215637    
   5510000   301.87661     -3808.6218      1238.8035      129.69219     -19.572757    
   5515000   295.14663     -3826.6824      1202.9927      15.638512      13.656405    
   5520000   294.71192     -3821.783       1218.3368      31.994482      20.399025    
   5525000   305.46747     -3847.875       1193.1507      76.897143      6.9395633    
   5530000   299.9548      -3792.5738      1191.8118      81.562887      11.072066    
   5535000   296.11391     -3797.6673      1222.9451      73.255883      61.205845    
   5540000   301.74619     -3839.3137      1257.5526      116.58317      13.273591    
   5545000   294.79236     -3789.5334      1224.567       71.193614     -3.1561501    
   5550000   294.41669     -3806.7127      1217.2475      43.335545      21.07668     
   5555000   301.44016     -3784.5721      1168.812       79.847443     -17.595816    
   5560000   297.06079     -3778.3255      1219.8975      98.017405     -11.395653    
   5565000   301.70631     -3811.2379      1183.2139      69.963641     -16.655801    
   5570000   300.00442     -3809.0999      1177.6         51.268604     -5.9250967    
   5575000   303.00325     -3824.353       1173.6922      58.924517     -5.3398575    
   5580000   303.08083     -3803.657       1192.8687      99.4908       -18.914852    
   5585000   301.00601     -3774.2432      1208.2622      125.74413      4.9595842    
   5590000   297.5101      -3799.8648      1207.8951      68.493543     -2.0948205    
   5595000   309.97539     -3841.3505      1155.6736      86.256315      15.805401    
   5600000   302.19046     -3819.9647      1235.6774      118.02982      14.754931    
   5605000   302.7028      -3796.6913      1174.5428      84.750089     -7.2284243    
   5610000   302.34546     -3801.9281      1210.8707      112.64569      32.695016    
   5615000   298.73835     -3806.8804      1244.3911      108.95755      23.979276    
   5620000   296.73712     -3769.4064      1258.9247      143.06929      7.0021791    
   5625000   293.49909     -3785.4712      1231.1031      70.227011      27.982322    
   5630000   290.91187     -3742.5342      1205.0761      64.001        -5.8453281    
   5635000   297.7317      -3809.7972      1199.4975      52.14525       1.1627027    
   5640000   300.30096     -3805.4095      1182.5674      62.578255     -8.3067959    
   5645000   294.69831     -3812.845       1186.4444      8.9184606     -3.7887344    
   5650000   297.2151      -3804.5864      1189.6632      42.90212       38.716277    
   5655000   304.23585     -3780.1197      1215.0481      155.53619      3.676793     
   5660000   299.97434     -3765.1422      1224.4834      141.84084      19.708308    
   5665000   302.43903     -3793.1432      1209.5756      120.97233      17.866318    
   5670000   301.07755     -3767.8711      1244.8177      169.31157      6.4647798    
   5675000   308.13651     -3794.2589      1220.1579      181.38821      8.9177209    
   5680000   301.06829     -3757.3414      1207.8952      142.83599      20.885377    
   5685000   298.71476     -3781.1739      1227.0095      117.07145      8.7719669    
   5690000   300.71854     -3785.2225      1168.9684      72.900438      6.8988483    
   5695000   301.96945     -3762.476       1183.8405      121.70522      3.6429005    
   5700000   300.00787     -3813.4351      1204.6979      74.062269      6.4140555    
   5705000   299.89552     -3800.4872      1202.3035      83.611006      34.512346    
   5710000   295.5446      -3810.3923      1228.9011      61.395762      16.549562    
   5715000   305.22434     -3825.7649      1177.3343      81.016719      33.009008    
   5720000   299.89068     -3765.6714      1204.0418      120.12179     -3.6401409    
   5725000   300.65227     -3795.4495      1240.7276      133.84004     -1.0974681    
   5730000   300.01851     -3788.1135      1231.624       126.40505      16.346756    
   5735000   296.90519     -3782.6259      1204.8709      77.298973      11.778834    
   5740000   293.73672     -3798.9355      1165.8765     -6.338918       5.5712418    
   5745000   302.29123     -3770.2332      1208.9893      141.97434      35.090882    
   5750000   302.31868     -3792.4291      1217.2559      128.29047      8.1305837    
   5755000   305.07889     -3808.6802      1190.8001      110.26659      13.227579    
   5760000   300.68668     -3805.2017      1235.4427      119.11066     -4.0779685    
   5765000   293.35169     -3819.8585      1198.8271      2.2456068      15.862679    
   5770000   297.8611      -3775.1634      1207.2242      95.662925     -8.3679762    
   5775000   304.85557     -3782.8835      1176.5462      119.8123       11.787825    
   5780000   295.26605     -3793.1234      1197.3269      44.599478      10.817189    
   5785000   297.50078     -3819.2538      1244.3134      85.439548      3.5003813    
   5790000   304.8333      -3793.0129      1202.1137      135.05128     -12.426215    
   5795000   298.57951     -3785.6171      1182.9402      67.349484      22.96393     
   5800000   307.24638     -3787.2447      1176.5467      136.83133     -3.1896172    
   5805000   298.80591     -3789.3835      1205.9595      88.626923      50.237252    
   5810000   305.03786     -3762.7314      1169.8945      134.94282      7.3882501    
   5815000   299.12969     -3792.0371      1231.1778      114.08716     -9.1606184    
   5820000   296.65029     -3785.2889      1228.2721      95.757675     -5.2367497    
   5825000   293.827       -3767.8166      1243.3982      103.10906     -9.7046267    
   5830000   301.25289     -3775.93        1181.8761      99.8791        23.553141    
   5835000   305.18845     -3762.9403      1176.5926      142.77874     -21.981765    
   5840000   309.98514     -3766.6007      1265.7706      271.19039      15.312375    
   5845000   306.31531     -3739.579       1242.6257      242.25007      14.524454    
   5850000   297.884       -3759.1976      1204.6183      109.22756      10.133362    
   5855000   303.78535     -3760.1385      1190.1394      146.58017      27.369745    
   5860000   299.38654     -3733.4729      1208.0306      151.80098      7.3250465    
   5865000   304.86615     -3749.3664      1236.2822      213.16011     -14.057603    
   5870000   296.98863     -3734.2272      1204.1761      125.74894     -31.277051    
   5875000   304.39502     -3706.9165      1237.2103      252.32503      5.4510211    
   5880000   305.09651     -3744.1189      1218.5294      202.71467     -10.776852    
   5885000   299.18339     -3720.9346      1184.1897      138.68169      6.7235269    
   5890000   298.15833     -3747.9134      1176.2334      94.57998       6.7999025    
   5895000   293.49271     -3742.0634      1205.8245      88.299229     -4.2180117    
   5900000   290.68948     -3756.9463      1205.9475      48.47155       1.8494844    
   5905000   298.4805      -3752.2026      1210.4661      127.40443     -8.4260819    
   5910000   296.62795     -3747.4587      1256.4187      161.53472      6.4754507    
   5915000   295.23579     -3758.984       1213.9276      95.068978      25.201037    
   5920000   294.92696     -3749.8867      1165.8235      53.300604      13.467638    
   5925000   302.68012     -3718.2914      1208.2469      196.6513      -1.8567222    
   5930000   303.59544     -3734.1375      1195.7738      176.51734      2.9006762    
   5935000   294.54016     -3743.0882      1160.0148      50.831385     -1.4756633    
   5940000   305.29575     -3732.8705      1192.1284      189.3438      -29.764301    
   5945000   305.42056     -3762.6129      1212.9261      181.5152      -7.8097747    
   5950000   303.58679     -3758.3712      1211.1971      167.62958     -24.755078    
   5955000   310.39258     -3794.3187      1219.7146      201.05993      0.5633394    
   5960000   298.98113     -3750.8401      1175.8259      98.603655     -11.142623    
   5965000   290.96387     -3732.9429      1192.8938      61.874991      0.67376768   
   5970000   301.31231     -3711.4872      1169.7889      152.76595     -15.515195    
   5975000   306.61184     -3728.4904      1178.456       191.82044     -10.075644    
   5980000   301.68946     -3744.5314      1196.0088      149.31434     -6.1519402    
   5985000   301.32599     -3758.9874      1161.423       97.022279      27.779606    
   5990000   297.80402     -3769.9001      1209.6859      102.87745      35.19748     
   5995000   305.42051     -3750.6226      1189.9802      170.55919      20.308731    
   6000000   301.50392     -3750.3492      1221.7605      167.58912     -15.802762    
   6005000   306.1454      -3713.9428      1200.7944      224.53538     -6.8410442    
   6010000   297.08075     -3727.537       1208.3616      137.44838      17.274666    
   6015000   298.55802     -3746.2277      1217.9821      141.58863     -19.113943    
   6020000   292.9921      -3764.8302      1217.2174      72.448465      5.6393431    
   6025000   294.95206     -3728.8422      1225.6058      134.35183     -12.889975    
   6030000   296.74521     -3735.2425      1175.1395      93.520258     -6.7433727    
   6035000   303.20609     -3788.3367      1165.88        88.942557      2.1006198    
   6040000   294.42192     -3768.2059      1196.3206      60.96217      -4.7867606    
   6045000   303.67674     -3778.8851      1203.3789      140.10177      29.233556    
   6050000   297.15365     -3773.9173      1207.6676      91.026084     -4.1268622    
   6055000   305.47291     -3752.1831      1254.5136      234.00061     -20.403034    
   6060000   302.98458     -3751.4993      1268.879       226.79817     -7.002709     
   6065000   300.07761     -3728.2516      1218.8152      173.98666      4.7164532    
   6070000   297.09052     -3731.4193      1245.9661      171.25808      9.3404771    
   6075000   301.13026     -3750.287       1145.7229      88.272101      3.7180819    
   6080000   297.50106     -3724.8826      1205.2332      140.733        28.499465    
   6085000   301.4553      -3730.4381      1194.6376      159.94245      8.4897266    
   6090000   298.17696     -3721.8009      1294.8776      239.50332     -4.2800863    
   6095000   299.86064     -3694.6081      1214.1097      200.98446     -2.7631205    
   6100000   300.59337     -3705.4815      1201.8343      184.38805      8.5810951    
   6105000   300.23354     -3705.584       1156.7998      136.03326     -11.307575    
   6110000   299.908       -3700.3649      1234.9487      216.49006      9.4514745    
   6115000   297.97178     -3683.3426      1206.8989      188.14822     -4.3305538    
   6120000   314.34056     -3667.2397      1152.7022      296.43104     -5.7991932    
   6125000   296.93847     -3690.1623      1182.616       147.80523      2.0246904    
   6130000   303.78396     -3710.045       1203.1131      209.63506      14.454119    
   6135000   303.36577     -3712.7239      1266.3892      266.49244      20.316637    
   6140000   307.63297     -3692.7981      1207.3002      265.48842      13.100045    
   6145000   300.92418     -3706.4313      1256.3321      240.89423      23.227302    
   6150000   302.12464     -3672.3163      1204.6826      234.09474      3.4525583    
   6155000   310.34443     -3638.3963      1151.2495      288.08658     -8.3095849    
   6160000   295.0701      -3671.0028      1217.4898      185.13082     -0.78078979   
   6165000   293.84094     -3659.5144      1222.6147      190.75233      43.463571    
   6170000   304.25803     -3638.9988      1185.431       267.2384      -8.5016397    
   6175000   302.23471     -3615.3231      1206.16        293.54968      7.3744129    
   6180000   298.48581     -3664.3558      1186.4568      191.28942      18.474141    
   6185000   296.6816      -3658.1706      1188.6613      183.54518      30.974968    
   6190000   309.25473     -3641.971       1167.395       290.91281     -12.024082    
   6195000   304.8487      -3671.761       1225.5869      279.91408     -11.184784    
   6200000   307.75476     -3657.5034      1178.3357      272.90774     -12.187008    
   6205000   301.92852     -3676.2028      1183.0193      206.79123      14.243765    
   6210000   297.24667     -3664.2896      1257.5301      251.34808      5.9056532    
   6215000   295.29331     -3637.9913      1205.8867      208.53524     -6.4600561    
   6220000   301.22288     -3643.4524      1205.0032      255.21532     -12.970096    
   6225000   306.19294     -3676.6499      1193.0505      254.50953      7.4016454    
   6230000   302.00665     -3628.1506      1211.6181      284.14091     -5.0897541    
   6235000   293.7788      -3643.3181      1177.7987      161.57699      1.5870206    
   6240000   298.51366     -3650.3695      1211.0771      230.14506      22.165446    
   6245000   300.87095     -3676.1681      1169.9124      184.2618       6.6346427    
   6250000   293.42082     -3644.7337      1222.6142      201.77564      11.753187    
   6255000   291.42275     -3655.1264      1209.5128      160.41397      2.8777545    
   6260000   299.01405     -3647.5124      1201.9862      228.38611     -4.2060299    
   6265000   290.68466     -3670.1805      1188.2016      117.4484      -27.196522    
   6270000   304.9062      -3631.9166      1227.2391      321.92487     -2.3092505    
   6275000   299.49954     -3653.1456      1208.9532      234.06128     -14.972568    
   6280000   291.6587      -3640.0161      1217.8668      185.98825      1.2362626    
   6285000   294.94413     -3669.0905      1187.3914      155.81816     -8.1428702    
   6290000   306.99522     -3658.7086      1225.6966      312.27129     -9.7831292    
   6295000   292.94988     -3634.5611      1202.4991      187.62178      38.340812    
   6300000   299.06933     -3659.9412      1202.4729      216.93823      18.236886    
   6305000   299.22189     -3648.5354      1241.1437      268.37916     -3.6846392    
   6310000   297.23384     -3682.7668      1211.5668      186.79273      2.664124     
   6315000   307.05132     -3673.6776      1258.4587      330.56604     -10.736612    
   6320000   299.67489     -3691.2588      1223.7518      212.31481     -12.809164    
   6325000   298.99236     -3687.0672      1189.3899      176.041        0.57570432   
   6330000   304.61073     -3649.7679      1248.3511      322.54334      1.8302513    
   6335000   305.16029     -3703.7054      1227.1809      252.34999     -11.256293    
   6340000   300.2945      -3681.8012      1214.436       217.99749      22.698229    
   6345000   298.51044     -3699.5361      1241.5435      211.41614     -19.899621    
   6350000   306.49671     -3715.2501      1203.521       229.09625      0.070925367  
   6355000   299.03535     -3719.5563      1200.734       155.28041      45.178711    
   6360000   304.15052     -3715.9709      1187.6338      191.50769      1.8760919    
   6365000   298.94852     -3713.2785      1139.8037      99.851426      12.736936    
   6370000   298.79796     -3721.6393      1268.2689      218.60949      29.247847    
   6375000   304.00282     -3712.9094      1233.3603      238.97485      24.370166    
   6380000   297.85936     -3714.3949      1217.6778      166.86946     -9.6463581    
   6385000   308.47263     -3690.7427      1183.5983      251.35063      18.009517    
   6390000   295.74233     -3698.048       1206.7144      153.32163      0.90974268   
   6395000   300.2672      -3699.1215      1251.5544      237.55138      21.971738    
   6400000   298.39349     -3685.9259      1204.7056      187.14253      19.60207     
   6405000   300.46366     -3725.3387      1151.6125      113.14915     -17.322924    
   6410000   303.45312     -3703.1826      1206.3898      216.81548      2.9673981    
   6415000   304.47237     -3691.6977      1189.2317      220.25696     -23.739007    
   6420000   311.13736     -3710.8276      1223.4379      294.93437     -0.62125824   
   6425000   293.91785     -3692.9549      1226.6119      161.99678     -2.0097199    
   6430000   296.37811     -3693.9147      1202.2941      158.72         32.221876    
   6435000   296.69246     -3724.7804      1152.5634      80.934587     -0.27379027   
   6440000   293.04138     -3729.5044      1187.7347      78.73247      -2.4488158    
   6445000   298.563       -3705.2055      1223.7136      188.38693     -21.445593    
   6450000   302.84401     -3714.8631      1189.9946      183.29296      28.419348    
   6455000   297.85177     -3711.2608      1230.3235      182.58135      21.222825    
   6460000   303.86932     -3719.2666      1212.4794      210.54294      17.758253    
   6465000   300.72677     -3696.4704      1161.7751      154.53282     -2.0720572    
   6470000   298.87633     -3673.4649      1223.2609      222.47675      35.757325    
   6475000   304.89499     -3697.0233      1204.7217      234.20058      6.5049666    
   6480000   302.82536     -3683.6543      1201.4698      225.81018     -29.143457    
   6485000   296.39177     -3712.5989      1210.6433      148.50709     -13.128421    
   6490000   299.20357     -3683.6228      1217.8568      209.84106     -0.99571231   
   6495000   299.17499     -3666.5491      1214.6754      223.47774      3.0759295    
   6500000   298.57603     -3691.0223      1244.7319      223.70484     -7.8261895    
   6505000   301.17106     -3699.6138      1198.8642      192.45152      23.000832    
   6510000   307.64644     -3687.6532      1159.6602      223.11388      26.36313     
   6515000   306.6057      -3689.1109      1212.6931      265.3823      -9.9257047    
   6520000   301.14768     -3707.2944      1216.7264      202.42407     -26.128182    
   6525000   301.75639     -3698.8016      1200.9148      200.54867      2.2739527    
   6530000   298.50842     -3707.6062      1184.1776      145.96215     -5.1632936    
   6535000   306.0845      -3688.8867      1176.8184      225.07098      7.9367445    
   6540000   301.75188     -3686.5869      1212.3655      224.17368      42.948044    
   6545000   302.8695      -3689.5225      1247.5724      266.43925     -9.4561544    
   6550000   305.45771     -3695.021       1214.4975      251.01079      8.0962516    
   6555000   292.10707     -3674.4739      1253.6098      191.283       -17.503578    
   6560000   299.3385      -3685.6904      1207.3576      198.4808       15.74062     
   6565000   294.39428     -3692.571       1223.6711      163.70043      5.7801272    
   6570000   303.44809     -3684.7007      1179.571       208.43359      0.23097238   
   6575000   301.54657     -3723.8754      1230.5106      203.19446      16.092367    
   6580000   296.25222     -3707.4053      1255.0153      196.82479      15.37833     
   6585000   297.53628     -3720.0121      1223.42        164.10532      2.7243722    
   6590000   299.46866     -3696.567       1235.7992      217.20972      24.034723    
   6595000   298.10194     -3724.3853      1188.3043      129.67477      27.089829    
   6600000   298.05818     -3728.1261      1267.4321      204.67049      16.344539    
   6605000   305.09976     -3715.4697      1239.7681      252.63173      16.370427    
   6610000   297.15991     -3706.6761      1211.9266      162.58223      4.2382433    
   6615000   302.81421     -3725.7051      1252.5273      234.71717      15.434449    
   6620000   299.90524     -3712.9868      1226.0396      194.93442      51.314297    
   6625000   297.06185     -3719.3734      1186.2243      123.30576     -11.833568    
   6630000   299.21903     -3695.8116      1202.5787      182.51238      0.43575152   
   6635000   308.13932     -3721.836       1301.3232      335.00151     -6.3910097    
   6640000   292.8434      -3703.7049      1220.0371      135.06383      14.676572    
   6645000   298.58786     -3697.1984      1221.636       194.53868      23.114502    
   6650000   300.38536     -3728.9295      1213.9127      171.15831      4.3675192    
   6655000   301.15912     -3691.8701      1249.058       250.28241     -13.723625    
   6660000   300.30968     -3761.1613      1191.1622      115.49923     -14.847703    
   6665000   304.22709     -3755.037       1246.9701      212.46265     -10.765302    
   6670000   308.48076     -3764.4978      1172.3826      166.45243      22.192005    
   6675000   299.99944     -3711.3942      1246.0979      217.42781     -11.225959    
   6680000   293.42525     -3730.7715      1220.1334      113.29664      11.905474    
   6685000   297.04893     -3735.175       1240.2254      161.38965      7.2308137    
   6690000   295.80153     -3758.1473      1226.7493      113.78653     -8.9649285    
   6695000   297.31833     -3704.9365      1188.5626      142.37449      3.2225271    
   6700000   303.02699     -3688.2426      1199.1978      220.75297      12.181245    
   6705000   296.95988     -3711.8806      1209.2599      152.92229      8.3491986    
   6710000   298.59895     -3740.3673      1212.4562      142.28914     -25.320887    
   6715000   309.6825      -3696.9607      1229.1928      301.54619      21.582002    
   6720000   306.79643     -3680.1006      1212.2381      275.64321     -3.3920568    
   6725000   300.35724     -3698.2307      1208.2387      195.93168     -4.4118953    
   6730000   307.03055     -3690.0995      1232.5303      288.03004     -1.3496758    
   6735000   296.37584     -3665.019       1181.6349      166.93615     -3.438121     
   6740000   305.07124     -3665.1433      1257.3559      320.29087     -14.741025    
   6745000   300.8591      -3688.985       1210.8231      212.24957      19.1648      
   6750000   298.90261     -3645.9401      1221.1428      248.11836      18.344316    
   6755000   299.47094     -3672.0635      1268.0867      274.02116      26.63725     
   6760000   308.46242     -3648.1017      1255.2486      365.55046     -19.953681    
   6765000   296.30771     -3674.9797      1228.5938      203.32508      11.628233    
   6770000   304.77944     -3687.8124      1200.8715      238.528        14.032167    
   6775000   302.60923     -3652.4578      1209.3661      262.97022      1.9764488    
   6780000   307.30365     -3660.0246      1215.9543      303.97121      1.2356544    
   6785000   298.2018      -3634.103       1206.813       239.35877     -16.074056    
   6790000   302.85328     -3669.7774      1209.0464      247.51334      11.476124    
   6795000   296.64126     -3692.6808      1226.8803      186.89328      0.45318279   
   6800000   295.21296     -3662.8068      1210.1808      187.29532      7.2272531    
   6805000   302.87424     -3679.7196      1197.0604      225.77252      9.9462998    
   6810000   299.18158     -3656.8228      1214.35        232.93762      16.8438      
   6815000   294.19906     -3688.1874      1144.7925      87.459631      7.584117     
   6820000   297.84951     -3665.0718      1228.6628      227.08936      15.978178    
   6825000   302.1642      -3660.8797      1232.87        274.07262      9.0380793    
   6830000   310.07427     -3661.6754      1202.7306      313.87268     -19.570047    
   6835000   300.84101     -3699.9267      1209.7638      200.08683      10.356668    
   6840000   311.61185     -3702.0664      1245.4293      329.93004     -16.505409    
   6845000   305.60971     -3704.445       1223.9975      252.44597      9.4201697    
   6850000   300.84702     -3669.7781      1191.4461      211.97139      21.506985    
   6855000   298.67767     -3679.3737      1239.3349      230.86543      5.9195791    
   6860000   301.47083     -3716.714       1209.7181      188.88591      17.204522    
   6865000   303.27583     -3719.5613      1202.8398      195.30143      13.66366     
   6870000   297.42872     -3700.204       1182.3195      141.85102      24.862328    
   6875000   290.35846     -3679.7199      1193.7654      110.55581      0.7678329    
   6880000   305.27474     -3718.0074      1205.6537      217.54439      24.211571    
   6885000   299.13416     -3677.3988      1235.146       232.73357     -0.15487124   
   6890000   304.12059     -3671.914       1229.9927      277.65581      1.6547854    
   6895000   298.80366     -3708.7948      1168.7454      131.98152     -9.9858878    
   6900000   296.23279     -3694.224       1179.7227      134.5397       16.802115    
   6905000   294.2452      -3705.9375      1251.4369      176.76665      8.8894982    
   6910000   296.77558     -3687.6605      1170.9929      137.22724      6.4434442    
   6915000   300.79795     -3682.6419      1197.4607      204.68342     -20.621388    
   6920000   297.56575     -3649.6413      1251.1435      262.46309      5.1869268    
   6925000   302.96793     -3718.5264      1176.0877      166.83085     -1.6040099    
   6930000   299.51848     -3690.3013      1231.0698      219.19158      15.325057    
   6935000   306.02169     -3702.8716      1251.1566      284.86256     -36.248485    
   6940000   309.76275     -3695.4711      1187.6807      262.24127     -7.4508543    
   6945000   298.22359     -3708.6107      1210.4141      168.64695     -9.8710991    
   6950000   299.26197     -3747.1         1154.8847      83.913933      13.873094    
   6955000   301.32416     -3720.5157      1216.1746      190.22924      4.9107495    
   6960000   304.96038     -3740.8129      1201.3481      187.62219      17.622542    
   6965000   294.1775      -3704.7913      1229.6086      155.47905      23.439135    
   6970000   299.34021     -3744.4406      1228.6253      161.01358      3.5682277    
   6975000   306.84013     -3741.2111      1256.7483      259.43372      8.2587056    
   6980000   301.2221      -3734.4259      1182.3906      141.62226      1.7903926    
   6985000   298.74415     -3760.1288      1236.1614      147.53127      0.5267917    
   6990000   291.66972     -3759.108       1174.8166      23.94468      -1.7591135    
   6995000   298.82854     -3754.8192      1185.9924      103.42665     -25.952915    
   7000000   304.41169     -3747.0844      1171.7575      146.85336      20.774806    
   7005000   292.88484     -3763.6332      1230.3898      85.858761      19.566626    
   7010000   293.05257     -3748.7019      1224.3213      96.221589     -4.8095058    
   7015000   301.45632     -3765.3398      1196.9668      127.3791      -21.150872    
   7020000   297.44713     -3763.1723      1208.1676      104.89547      14.424058    
   7025000   300.83214     -3771.8641      1277.7274      196.03378      9.874215     
   7030000   306.48095     -3750.4403      1231.7352      221.97941      10.86141     
   7035000   292.61295     -3756.3054      1236.7282      97.09373      -10.550721    
   7040000   302.68306     -3782.9298      1206.5334      130.32577     -22.265961    
   7045000   298.00448     -3776.1473      1224.3192      113.05616      31.618027    
   7050000   298.78959     -3750.8672      1254.8148      175.85268      17.807646    
   7055000   297.84115     -3791.9002      1253.3199      124.84336      3.2321224    
   7060000   297.40108     -3780.251       1195.6947      74.932148      8.6866238    
   7065000   296.15993     -3774.458       1198.5865      72.518022     -27.320797    
   7070000   300.24233     -3796.8253      1188.9         76.970771     -7.8430501    
   7075000   303.2036      -3785.1822      1170.998       97.192802     -1.7395944    
   7080000   300.74975     -3770.3282      1234.6422      153.74756      4.4977404    
   7085000   297.28713     -3767.3918      1237.9147      128.99238     -2.734785     
   7090000   302.85393     -3762.9347      1193.4023      138.7176       32.360305    
   7095000   297.31803     -3753.3381      1193.6589      99.066577      20.765555    
   7100000   296.41844     -3733.4633      1190.2834      107.52139      15.617275    
   7105000   295.15237     -3737.183       1214.055       116.25148      9.0759284    
   7110000   306.97743     -3761.8155      1210.593       193.90174      5.5063021    
   7115000   301.9855      -3740.7367      1239.5649      199.31244      9.6131021    
   7120000   300.53049     -3742.1253      1234.2193      179.567       -12.075275    
   7125000   303.66741     -3754.4778      1169.1449      130.19164      4.7970916    
   7130000   296.54835     -3779.5171      1215.6985      88.044298     -0.45226133   
   7135000   305.00508     -3779.7962      1187.2395      134.93001     -19.750942    
   7140000   295.5038      -3759.7636      1188.6867      71.445075      7.0600848    
   7145000   301.48407     -3756.7364      1200.1053      139.36915     -11.600514    
   7150000   298.23398     -3769.3074      1191.0283      88.657494      9.5462692    
   7155000   297.22391     -3770.8237      1253.8032      140.88357      3.2404498    
   7160000   298.00019     -3782.4262      1212.0389      94.458572     -10.396229    
   7165000   293.09722     -3772.3899      1225.1772      73.788824     -7.5089792    
   7170000   297.52471     -3763.0188      1210.7978      108.37288      34.397017    
   7175000   296.86153     -3794.2983      1199.4598      59.824974     -13.46977     
   7180000   298.73599     -3739.4219      1172.7538      104.75762      19.312287    
   7185000   303.29654     -3770.4029      1145.295       87.100262      1.2463635    
   7190000   302.76291     -3763.3092      1182.4238      126.55077      13.955308    
   7195000   298.18814     -3775.0648      1205.0129      96.474684      1.1769972    
   7200000   300.709       -3775.6018      1173.0071      86.474566      40.363315    
   7205000   295.07892     -3708.5273      1235.9322      166.12755     -6.7956953    
   7210000   302.96222     -3705.5882      1198.1913      201.82156      11.301572    
   7215000   296.34668     -3738.0767      1224.9005      136.88335      2.4137554    
   7220000   303.32217     -3719.1383      1209.6819      202.98097      25.089518    
   7225000   302.71882     -3752.9899      1224.7831      178.83499      31.353484    
   7230000   305.90183     -3754.9776      1205.8679      186.39609      2.0892966    
   7235000   298.34173     -3767.6645      1156.9344      57.169978     -14.08658     
   7240000   309.4379      -3745.8815      1177.5878      198.83305      42.935291    
   7245000   294.90617     -3800.3503      1218.2923      55.119788      7.5419918    
   7250000   296.30475     -3793.2249      1201.0323      57.491957     -2.346658     
   7255000   294.52455     -3757.615       1165.88        42.030195      9.0520802    
   7260000   303.01571     -3756.4242      1242.4424      195.71498      10.327132    
   7265000   299.6467      -3762.8128      1194.0011      110.75798      14.896998    
   7270000   296.44372     -3734.6358      1265.4665      181.75793     -23.770671    
   7275000   293.72645     -3745.7283      1237.2257      118.12567      10.600027    
   7280000   301.43378     -3775.9823      1252.5125      172.08077      6.479894     
   7285000   297.8845      -3770.1949      1217.5767      111.19316     -11.630433    
   7290000   304.63345     -3756.4608      1214.2396      181.94211     -6.2132583    
   7295000   303.98205     -3795.9373      1258.3501      180.75108     -0.30863437   
   7300000   301.8192      -3766.1209      1201.6649      134.54106      2.4906562    
   7305000   299.96987     -3775.1492      1243.0317      150.34209      7.5271469    
   7310000   303.12853     -3776.1333      1241.1772      175.74962      13.201986    
   7315000   308.05922     -3771.2347      1162.8026      146.36601      2.0285546    
   7320000   299.20031     -3748.8692      1197.0993      123.80796     -22.126196    
   7325000   300.81689     -3783.2672      1209.7139      116.4807      -5.2108145    
   7330000   295.28554     -3788.8363      1233.4359      85.169951      3.283355     
   7335000   305.77762     -3750.654       1154.1026      137.84362      11.052111    
   7340000   297.77212     -3747.6278      1230.7151      145.8937      -7.6226641    
   7345000   298.123       -3777.8981      1259.3477      147.39374     -4.3599561    
   7350000   297.83836     -3752.4572      1221.0493      131.99079      18.192185    
   7355000   304.27056     -3787.0612      1183.5992      117.45628      17.606969    
   7360000   306.81211     -3763.6557      1211.9677      191.95793     -10.209085    
   7365000   300.6838      -3773.3527      1200.8746      116.36577      11.175462    
   7370000   300.76634     -3737.8838      1181.1543      132.85255     -5.9100225    
   7375000   298.41429     -3773.2745      1199.8834      95.157764      19.0911      
   7380000   296.03518     -3791.1758      1234.0579      90.156088     -20.719389    
   7385000   303.06186     -3770.0809      1226.4875      166.51617      27.043735    
   7390000   298.00843     -3785.2757      1175.4974      55.141268      8.127276     
   7395000   297.83769     -3793.9256      1210.3023      79.769401      14.283974    
   7400000   296.99982     -3783.1318      1185.5245      58.29289       0.22220832   
   7405000   299.32392     -3763.3375      1251.1067      164.45249      15.799455    
   7410000   301.65137     -3808.0612      1221.0595      110.49458      40.71272     
   7415000   302.66557     -3798.9232      1224.978       132.62052      10.954041    
   7420000   298.33575     -3766.5249      1232.8286      134.15019     -2.7846219    
   7425000   304.35541     -3787.46        1192.6902      126.90708      2.0417823    
   7430000   297.18315     -3799.1486      1224.9193      83.310257      2.4502539    
   7435000   302.48525     -3754.0768      1233.26        184.13648      19.044765    
   7440000   299.33352     -3771.4164      1164.5242      69.876769     -3.1245325    
   7445000   300.05355     -3774.0181      1216.8415      126.03132      10.426812    
   7450000   296.35355     -3723.0744      1193.391       120.43752     -2.2012757    
   7455000   309.91854     -3761.9066      1166.2303      175.74861      17.785875    
   7460000   294.71657     -3769.4081      1192.5615      58.635785     -7.2115704    
   7465000   299.02773     -3758.6329      1230.4189      145.82064      10.820416    
   7470000   304.9189      -3760.0525      1174.8747      141.53824     -5.651894     
   7475000   299.79907     -3758.4599      1194.4891      116.96141     -16.557296    
   7480000   297.48097     -3732.46        1242.8685      170.61128      4.7874332    
   7485000   299.12141     -3801.9505      1219.284       92.205797      2.6401019    
   7490000   301.58171     -3777.0775      1211.4566      131.25254      21.705655    
   7495000   303.18367     -3763.9602      1164.815       112.05362     -14.998314    
   7500000   291.61393     -3789.4361      1241.5604      59.861509      13.695316    
   7505000   295.09671     -3786.238       1184.6336      37.277306     -1.2947505    
   7510000   299.6036      -3791.5454      1154.2602      41.89918      -5.1301664    
   7515000   308.89426     -3796.6284      1219.8815      185.51839      10.234914    
   7520000   302.6963      -3774.1907      1253.2378      185.88761      15.213737    
   7525000   302.4397      -3774.1368      1178.8068      109.21593     -4.1205669    
   7530000   300.74628     -3768.9997      1212.568       132.97095     -4.1528383    
   7535000   305.82023     -3783.2554      1117.4335      68.954197      0.59730017   
   7540000   298.11982     -3785.0703      1261.8099      142.65535      4.1946879    
   7545000   295.16029     -3734.1447      1218.0839      123.38945      18.973212    
   7550000   295.46308     -3761.3316      1232.8535      113.67992     -7.9042206    
   7555000   300.37457     -3749.1975      1260.3348      197.21594     -22.896294    
   7560000   299.28108     -3789.032       1212.5387      99.806814      10.897976    
   7565000   306.43648     -3750.8465      1197.8502      187.29048     -0.32716304   
   7570000   298.00598     -3739.4542      1198.5004      123.94386     -9.8453083    
   7575000   288.41088     -3748.4568      1192.1525      22.789808      18.166649    
   7580000   300.32027     -3753.4244      1218.2834      150.45202     -6.5580146    
   7585000   297.28287     -3715.4118      1185.3328      128.35237      11.735034    
   7590000   301.76435     -3746.061       1246.3385      198.78414     -1.5609102    
   7595000   297.60837     -3692.8949      1168.5823      137.0295       25.805685    
   7600000   297.27149     -3736.9331      1233.4583      154.85476      20.61446     
   7605000   303.95497     -3725.7996      1242.1117      234.40812     -7.5353468    
   7610000   303.37683     -3736.6049      1171.8197      148.14087      0.18432735   
   7615000   308.08972     -3724.2303      1166.232       197.07251     -3.4686439    
   7620000   302.43931     -3745.1792      1227.46        186.8232       3.5691307    
   7625000   304.32877     -3724.3278      1190.5707      187.68167     -2.2025753    
   7630000   304.27323     -3737.3897      1224.9343      208.48666     -34.554197    
   7635000   307.68861     -3723.1623      1186.0814      214.40293      9.5482651    
   7640000   301.19717     -3721.8659      1244.6275      216.19618     -10.084704    
   7645000   292.70106     -3720.9465      1291.8225      188.33486      19.664168    
   7650000   302.1415      -3747.4197      1292.2026      246.66218      36.259164    
   7655000   297.24435     -3727.9504      1221.0188      151.1552       9.6892201    
   7660000   302.27704     -3719.1515      1225.6475      209.5873       4.5598429    
   7665000   308.86374     -3710.0138      1217.4556      269.43419      0.46687463   
   7670000   301.52996     -3715.0566      1226.5185      207.87254      8.0133949    
   7675000   300.69641     -3732.4863      1213.6118      170.08216     -2.8365209    
   7680000   292.78812     -3688.8299      1197.7502      127.15761      5.6567149    
   7685000   297.9668      -3703.3155      1264.2429      225.47474     -8.97344      
   7690000   304.024       -3732.8434      1226.0058      211.8758       22.188094    
   7695000   302.32379     -3708.8495      1249.9318      244.59164      5.5288637    
   7700000   298.83266     -3694.1067      1214.0921      192.27565      7.9094759    
   7705000   300.30352     -3711.0688      1206.6716      181.0461      -18.777987    
   7710000   306.31381     -3699.9474      1170.191       209.43338      0.80898456   
   7715000   301.35084     -3742.4459      1189.7445      142.1075      -46.348315    
   7720000   299.9393      -3715.5659      1211.4146      178.03498     -9.4891943    
   7725000   301.94655     -3710.571       1222.4414      212.00629      13.731332    
   7730000   302.12684     -3713.2261      1253.0444      241.56649     -2.0416085    
   7735000   304.82775     -3699.9493      1235.2097      261.16129      4.2147147    
   7740000   295.60039     -3697.592       1199.4984      145.29224      23.112911    
   7745000   297.59787     -3681.5711      1228.0502      207.72733     -4.4009191    
   7750000   301.44951     -3669.1379      1185.8669      212.42018      5.745225     
   7755000   292.984       -3682.7621      1286.711       223.93795      3.9836513    
   7760000   294.52465     -3702.1189      1227.3618      159.00908     -16.205663    
   7765000   300.74511     -3672.315       1213.2285      230.30563     -6.5023391    
   7770000   301.77936     -3673.3599      1246.0358      271.3167       13.613083    
   7775000   295.94985     -3692.9669      1187.0411      140.58503      10.729363    
   7780000   309.20729     -3691.805       1259.0656      332.32509      0.19570901   
   7785000   308.39797     -3652.6972      1229.4478      334.57793     -11.259072    
   7790000   298.32037     -3712.6391      1256.8558      211.92568     -27.773879    
   7795000   303.31604     -3683.6672      1225.1803      253.89561     -1.8294833    
   7800000   298.11555     -3683.9071      1244.8301      226.80042      19.286932    
   7805000   296.52666     -3714.0502      1245.4985      183.11733      10.802894    
   7810000   295.7454      -3686.0398      1246.5222      205.16495     -26.088139    
   7815000   293.90045     -3694.7515      1251.5129      184.94561     -4.172687     
   7820000   305.08247     -3677.7211      1238.0865      288.54412     -2.9692161    
   7825000   298.12994     -3684.4589      1154.8916      136.43878     -18.832974    
   7830000   304.05268     -3714.4436      1230.0853      234.61153     -22.333089    
   7835000   302.37208     -3673.6565      1246.0624      276.34717      33.866756    
   7840000   300.42426     -3684.5295      1226.495       228.4884       26.566186    
   7845000   295.69372     -3686.6366      1289.6643      247.24821     -1.7134888    
   7850000   296.01465     -3722.3153      1225.614       150.38905      4.1085966    
   7855000   296.18354     -3688.5972      1250.0284      210.03187      23.814105    
   7860000   300.51319     -3671.6924      1222.8483      238.47407     -6.448807     
   7865000   298.00106     -3701.1396      1208.5705      172.28449     -5.5001452    
   7870000   302.29168     -3681.6015      1278.2488      299.86948      10.404042    
   7875000   298.08956     -3693.5537      1201.0701      173.16144      22.118651    
   7880000   305.05687     -3712.5936      1214.3158      229.67195      4.7717761    
   7885000   294.90439     -3695.7635      1257.7068      199.10526      12.646882    
   7890000   302.08826     -3721.5321      1203.24        183.11106      37.407006    
   7895000   296.37147     -3722.741       1208.8043      136.34446     -1.45525      
   7900000   303.50358     -3711.3607      1179.6708      182.36975     -3.3638668    
   7905000   304.00063     -3689.0477      1208.6451      238.10184      19.66213     
   7910000   298.35715     -3707.3168      1244.5526      205.27381      13.749109    
   7915000   302.21357     -3732.7943      1155.4694      125.19879     -3.0810144    
   7920000   296.80248     -3706.8815      1238.5327      185.78662     -2.6318956    
   7925000   296.94729     -3705.7944      1218.0541      167.69014      8.4598458    
   7930000   300.62149     -3729.6986      1183.8427      142.43079     -20.319856    
   7935000   301.10022     -3727.8256      1249.0553      213.79738     -13.915416    
   7940000   299.00383     -3707.8747      1162.0086      127.9548       18.728006    
   7945000   293.47767     -3723.4558      1175.151       76.098761     -9.0614132    
   7950000   294.33974     -3720.4343      1280.2739      191.95213      0.70788196   
   7955000   295.61279     -3741.4294      1194.2268      96.294133      27.994423    
   7960000   301.3623      -3750.1164      1207.826       152.62087     -2.6107825    
   7965000   300.03702     -3729.3257      1175.2668      129.00118     -19.036932    
   7970000   300.45257     -3728.3053      1213.3632      171.83403      2.0607854    
   7975000   303.24648     -3703.1413      1204.7339      213.35304     -10.057288    
   7980000   297.92975     -3708.7503      1183.561       139.02659      11.166376    
   7985000   295.62968     -3725.7952      1237.7728      155.62548     -18.256355    
   7990000   299.70875     -3734.9767      1183.8518      128.99972      5.0102217    
   7995000   305.86269     -3723.0413      1260.3453      272.45979     -9.8653952    
   8000000   297.38579     -3736.846       1207.6509      130.15658     -7.3433962    
   8005000   297.88429     -3703.472       1178.4597      138.79719     -17.823633    
   8010000   299.38674     -3723.0536      1215.7558      169.94725      31.256692    
   8015000   296.09708     -3733.9078      1188.3906      102.31028      10.296068    
   8020000   302.45922     -3736.7475      1179.8102      147.78308      0.23323817   
   8025000   298.66115     -3697.6111      1180.3132      153.4586       11.01291     
   8030000   300.6786      -3724.2569      1209.2479      173.78834     -3.9921121    
   8035000   301.13996     -3742.1972      1224.4337      175.15962     -6.9746209    
   8040000   303.15927     -3724.2136      1271.2007      257.96766      10.985388    
   8045000   294.40986     -3760.9391      1195.7784      67.578853     -21.639607    
   8050000   295.88499     -3734.1894      1180.4768      92.218171     -5.1513745    
   8055000   300.08711     -3734.545       1209.3324      158.29545      17.622176    
   8060000   303.58059     -3723.2482      1162.2894      153.7894       3.392283     
   8065000   296.68717     -3728.8013      1224.382       148.68491      4.4260868    
   8070000   299.03063     -3774.112       1228.311       128.2595      -17.008771    
   8075000   296.55938     -3742.3348      1220.3006      129.92742     -11.828046    
   8080000   294.20454     -3707.3259      1205.092       128.66961     -0.75772452   
   8085000   297.54777     -3738.0759      1188.0137      110.73798      31.668817    
   8090000   301.48379     -3729.7443      1200.2292      166.48266     -8.9626938    
   8095000   294.93782     -3722.1757      1226.22        141.50509     -3.4744259    
   8100000   296.09555     -3721.8805      1238.172       164.10529      1.2764272    
   8105000   294.5536      -3744.0015      1219.0898      109.11329      6.5556699    
   8110000   300.21968     -3730.1931      1197.4273      151.9277       1.4892227    
   8115000   301.76517     -3740.2159      1228.2201      186.51821     -13.766729    
   8120000   297.27451     -3730.1884      1200.2581      128.42625     -7.2735933    
   8125000   307.05846     -3725.9383      1238.4069      258.31743      26.488166    
   8130000   304.05387     -3753.2129      1255.6454      221.413        24.732447    
   8135000   295.72885     -3703.5583      1228.3435      169.31987      2.6533569    
   8140000   296.39143     -3743.8318      1190.63        97.257785      33.309822    
   8145000   299.52892     -3735.4179      1249.3236      192.42206     -7.2176843    
   8150000   298.46176     -3737.4405      1187.5603      119.09325     -22.696609    
   8155000   302.19485     -3733.4461      1232.8294      201.73957     -10.55426     
   8160000   298.02974     -3730.9892      1224.4789      158.59975      8.8344947    
   8165000   301.16236     -3731.3975      1193.3194      155.04524      11.557169    
   8170000   300.49844     -3727.7007      1201.3979      160.88346     -2.2656714    
   8175000   290.15028     -3756.2604      1241.4504      79.83853      -11.241703    
   8180000   299.28294     -3733.648       1169.8319      112.50072      2.9610091    
   8185000   302.1817      -3739.8633      1213.1172      175.49257      12.462091    
   8190000   297.4044      -3729.2853      1205.198       135.43081     -3.8452266    
   8195000   313.13609     -3735.1777      1218.0526      283.07254     -4.0570833    
   8200000   305.77666     -3763.4248      1195.4875      166.4491       5.2773128    
   8205000   299.46838     -3742.4945      1203.2879      138.76853      17.067745    
   8210000   301.04003     -3745.1076      1145.9262      92.848022      3.3199149    
   8215000   296.82314     -3715.8062      1224.7632      163.27713      6.7100071    
   8220000   303.62176     -3729.9985      1265.6288      250.74664     -14.309148    
   8225000   296.52056     -3727.8737      1209.0523      132.79306      10.789462    
   8230000   301.93181     -3738.0403      1246.8         208.76379     -21.766951    
   8235000   305.66146     -3735.2858      1219.7185      217.78891      13.412313    
   8240000   294.42761     -3729.6871      1216.6487      119.85993      22.582699    
   8245000   298.55732     -3743.9135      1173.9195      99.83394      -10.440573    
   8250000   300.5351      -3754.8412      1243.1531      175.82601      2.3657736    
   8255000   294.05746     -3724.0999      1214.8161      120.30451      19.636758    
   8260000   303.29326     -3750.7265      1194.0354      155.48773     -3.703975     
   8265000   301.12156     -3741.773       1159.1206      110.10614     -22.374346    
   8270000   300.80615     -3722.5448      1204.8795      172.27269     -10.985145    
   8275000   299.58465     -3719.5814      1195.2205      154.65389      15.662812    
   8280000   302.97326     -3715.4436      1200.3785      194.25199      3.1185748    
   8285000   298.74062     -3746.1079      1203.3222      128.68143     -22.137361    
   8290000   293.50723     -3712.4915      1208.5346      120.71096      2.8092788    
   8295000   297.58476     -3748.6619      1197.7373      110.20628      8.4307425    
   8300000   301.95112     -3681.0258      1194.9267      214.07775      10.110745    
   8305000   299.20661     -3693.0215      1225.0343      207.64708     -42.049714    
   8310000   307.61995     -3730.6005      1225.0536      245.32291      20.180653    
   8315000   307.66697     -3742.2035      1213.8029      222.8898       0.54490026   
   8320000   302.74085     -3733.6803      1171.3921      144.95079      16.767828    
   8325000   297.14244     -3756.3593      1191.4818      92.297971     -9.6566721    
   8330000   308.64447     -3704.032       1282.9191      338.9188      -11.775007    
   8335000   305.67665     -3726.7159      1220.9996      227.77585     -12.006424    
   8340000   302.07879     -3694.6926      1198.8054      205.43133     -13.735077    
   8345000   301.76061     -3682.003       1184.3876      200.85782      9.4026344    
   8350000   302.48577     -3683.4411      1211.398       232.91472     -10.008066    
   8355000   294.6624      -3684.8582      1225.8374      175.97708      6.4658056    
   8360000   306.82292     -3658.9139      1232.9824      317.81103      2.0931291    
   8365000   302.00534     -3683.8664      1275.6526      292.44792      27.746145    
   8370000   296.20643     -3661.4086      1233.3411      220.73777     -2.342166     
   8375000   301.13105     -3694.0033      1225.919       224.75906     -4.0210836    
   8380000   297.47689     -3671.9155      1174.5482      162.79907     -13.92285     
   8385000   301.54926     -3674.2777      1227.1904      249.4959       7.3325731    
   8390000   303.69378     -3690.9363      1182.4183      207.24237     -22.394042    
   8395000   299.61252     -3634.9954      1196.229       240.49761      16.947144    
   8400000   304.43605     -3660.3803      1225.1954      287.21326     -20.253717    
   8405000   304.21725     -3664.0229      1213.1618      269.58037      16.46628     
   8410000   296.35056     -3650.8507      1243.0644      242.30793     -5.7050228    
   8415000   300.40637     -3675.1004      1196.2259      207.48853     -2.3342389    
   8420000   293.53734     -3659.2399      1222.3701      188.06736      25.414132    
   8425000   293.62164     -3653.403       1209.2942      181.58221     -5.5672892    
   8430000   305.85865     -3642.8166      1240.6507      332.95367      21.83144     
   8435000   299.6439      -3654.7418      1211.773       236.57581      16.576531    
   8440000   296.44724     -3681.3529      1216.2067      185.81251      0.67611449   
   8445000   306.29461     -3677.3705      1213.6152      275.26289     -26.047771    
   8450000   297.94024     -3677.4046      1210.3052      197.21038     -2.2613542    
   8455000   299.66265     -3652.2106      1178.9895      206.49123     -2.8740276    
   8460000   300.52788     -3671.0139      1265.9901      282.42576     -15.125208    
   8465000   293.7762      -3646.7705      1174.2584      154.56104     -8.9975881    
   8470000   294.8145      -3657.278       1210.2673      189.34741     -2.7268487    
   8475000   302.80459     -3668.5189      1228.1836      267.47355      2.865791     
   8480000   292.48029     -3653.6863      1176.4362      138.23439      1.0357188    
   8485000   307.24486     -3677.2969      1201.349       271.56783     -10.108604    
   8490000   305.73928     -3659.7731      1211.6256      285.90462     -22.655519    
   8495000   293.70898     -3682.5801      1247.7654      191.65726      12.162673    
   8500000   299.00239     -3694.1927      1241.9155      221.53068     -6.2417113    
   8505000   308.29174     -3667.5094      1213.3353      302.70331      3.6722727    
   8510000   300.57629     -3663.8791      1211.1921      235.1955      -9.0599757    
   8515000   306.09506     -3656.9706      1224.8021      305.06525     -14.716488    
   8520000   299.28562     -3677.7299      1256.4283      255.03915      5.7526324    
   8525000   305.08012     -3673.0724      1237.6885      292.77379      5.1957983    
   8530000   291.75177     -3681.7788      1240.0469      167.23791     -12.027036    
   8535000   303.71163     -3687.476       1220.2625      248.70652      12.091873    
   8540000   296.34294     -3685.4797      1238.0016      202.54799      16.289464    
   8545000   302.97632     -3676.3943      1248.3978      281.34815     -9.9452842    
   8550000   286.42791     -3681.62        1176.321       56.062555      25.829958    
   8555000   305.95328     -3684.4931      1229.9478      281.4206       48.991674    
   8560000   299.87013     -3687.8943      1211.4166      205.09002     -9.1835132    
   8565000   290.68003     -3707.0244      1189.755       82.116471     -4.5031802    
   8570000   292.67146     -3696.7247      1175.402       95.87151       9.6257851    
   8575000   300.56257     -3697.4663      1224.4761      214.76964      5.6434391    
   8580000   303.16079     -3714.5163      1182.93        179.40785      14.844457    
   8585000   297.85681     -3662.9053      1225.2834      225.9418      -5.1960076    
   8590000   299.88959     -3681.9242      1209.9406      209.7582      -11.44535     
   8595000   298.59949     -3674.5479      1187.2806      182.93766      1.8952591    
   8600000   302.08827     -3699.1679      1212.6997      214.93513      3.6186861    
   8605000   307.24302     -3705.2633      1233.1425      275.37845      9.9306983    
   8610000   302.23479     -3704.9687      1233.6576      231.40246      23.485133    
   8615000   298.60687     -3702.7448      1171.6901      139.21641      20.915291    
   8620000   295.88175     -3704.0982      1235.7607      177.56439      17.937197    
   8625000   300.07542     -3712.3836      1221.3226      192.34244      0.58763921   
   8630000   292.67924     -3730.0408      1196.2313      83.454158     -0.22019324   
   8635000   297.67515     -3740.1742      1212.2948      134.05988     -8.3630877    
   8640000   301.80577     -3715.6265      1172.3594      155.60998     -12.601274    
   8645000   303.25976     -3741.7167      1226.293       196.45549      15.107606    
   8650000   300.81028     -3716.3275      1204.2981      177.94552     -27.376493    
   8655000   291.47757     -3726.2039      1205.7066      86.020524      2.7642089    
   8660000   289.92909     -3748.2511      1196.0608      40.480324      13.153747    
   8665000   303.98144     -3741.5272      1254.3136      231.11927     -9.2643911    
   8670000   300.53214     -3747.9063      1183.4534      123.03483     -25.70979     
   8675000   301.51414     -3735.8339      1164.3118      124.74714     -5.5890583    
   8680000   302.20167     -3733.1397      1207.1647      176.44231     -25.429951    
   8685000   296.30656     -3755.4511      1186.8424      81.091973      32.088279    
   8690000   300.34357     -3737.1316      1193.5912      142.26099      6.4528611    
   8695000   296.77579     -3699.4733      1186.9464      141.36976     -11.72922     
   8700000   296.54841     -3719.3559      1226.9339      159.44139      0.30093233   
   8705000   299.73746     -3686.1744      1192.3852      186.5921       19.178156    
   8710000   299.98802     -3709.1246      1210.0647      183.56209      2.6544166    
   8715000   298.78643     -3681.7297      1213.1677      203.3148      -26.153084    
   8720000   299.94687     -3689.6582      1229.3325      221.92825      12.906403    
   8725000   300.01989     -3729.3657      1230.2363      183.77747     -0.85045488   
   8730000   298.65203     -3735.8722      1192.7179      127.52065      5.7607319    
   8735000   302.30948     -3719.2131      1167.7876      151.95584      18.550558    
   8740000   297.17343     -3748.2643      1231.4083      140.5967       10.520235    
   8745000   299.61934     -3773.0594      1198.1227      104.38832      31.468251    
   8750000   293.62278     -3696.9551      1207.8986      136.64474     -1.7996965    
   8755000   292.95689     -3718.8535      1231.7991      132.69215     -5.2384965    
   8760000   299.36125     -3713.0752      1209.8846      173.8264      -7.146803     
   8765000   295.86593     -3741.8059      1191.7271      95.681562      1.6275623    
   8770000   294.0773      -3718.3263      1226.151       137.59041      18.583541    
   8775000   297.32197     -3715.5646      1191.6283      134.84461     -0.61934872   
   8780000   299.87759     -3642.9641      1255.0198      293.69006      17.434912    
   8785000   299.50512     -3675.3428      1219.2549      222.21573     -15.114689    
   8790000   302.97001     -3694.3914      1185.5396      200.43641      19.224593    
   8795000   295.97311     -3724.4786      1224.7025      146.94275      18.773856    
   8800000   306.48729     -3689.7822      1216.4968      267.4557       4.4505001    
   8805000   306.58868     -3676.2446      1187.3982      252.80145     -8.5304607    
   8810000   301.42737     -3707.6374      1260.7695      248.6253       18.116363    
   8815000   303.01451     -3736.4448      1237.6637      210.90495      11.30957     
   8820000   297.26236     -3740.5792      1244.644       162.31277     -13.51728     
   8825000   298.44925     -3773.2145      1219.3256      114.97269     -23.228545    
   8830000   295.0753      -3752.3136      1246.9207      133.29736      7.6338922    
   8835000   300.47014     -3732.5504      1215.8505      170.23338      0.91087474   
   8840000   294.04851     -3732.8926      1253.0658      149.68139      30.402959    
   8845000   294.66058     -3747.6952      1194.0331      81.31958      -0.51735602   
   8850000   303.4176      -3716.6917      1249.1806      245.77963      14.181789    
   8855000   302.34806     -3719.7461      1263.8989      247.87919      27.668605    
   8860000   301.64639     -3685.7559      1213.2157      224.91155      12.965494    
   8865000   306.50744     -3703.8777      1262.8142      299.8578       38.455497    
   8870000   296.61538     -3717.966       1247.172       181.66837      11.009711    
   8875000   298.2967      -3743.7997      1268.8869      192.58464      9.411317     
   8880000   291.78772     -3696.5824      1220.2193      132.92813     -9.0357977    
   8885000   299.45869     -3708.9419      1214.3904      183.33697     -5.5576769    
   8890000   306.49539     -3724.2252      1219.6487      236.23713      8.5257201    
   8895000   305.36397     -3713.1919      1187.4301      204.93414     -1.0201943    
   8900000   307.88804     -3708.978       1192.8452      237.13454     -5.1787414    
   8905000   302.03958     -3731.7671      1240.1726      209.37327      17.752478    
   8910000   296.34786     -3738.9815      1282.2269      193.31539     -4.0921495    
   8915000   305.40336     -3703.314       1180.8089      208.54313      16.556349    
   8920000   297.7466      -3686.1754      1263.6065      240.00924     -3.051174     
   8925000   297.9722      -3696.7248      1209.241       177.11172      16.367525    
   8930000   297.56124     -3713.3075      1236.3869      183.99995      1.2000767    
   8935000   296.76554     -3731.6266      1144.7941      66.972653     -26.828729    
   8940000   299.73179     -3669.8029      1237.4262      247.95391      9.3794353    
   8945000   307.766       -3676.0853      1193.8243      269.91489      13.065723    
   8950000   299.10192     -3709.8864      1223.5927      188.40434      6.2196299    
   8955000   295.50396     -3702.6248      1293.3326      233.23132     -7.5557462    
   8960000   295.6262      -3702.059       1197.3233      138.88095     -1.8443724    
   8965000   298.58928     -3712.4261      1207.1697      164.85745      5.8971489    
   8970000   300.40545     -3692.024       1230.5572      224.88798     -6.6210471    
   8975000   305.0139      -3673.8295      1186.0466      239.78261     -8.8960461    
   8980000   303.00427     -3662.8564      1256.5019      303.24003      2.0096294    
   8985000   305.5869      -3706.9351      1220.1178      245.87215      13.53653     
   8990000   296.59283     -3679.4137      1229.4957      202.34269     -20.278606    
   8995000   291.92712     -3684.3399      1230.452       156.64996     -6.0535649    
   9000000   296.42428     -3703.2902      1197.6624      145.12562     -32.267578    
   9005000   301.7032      -3707.6689      1251.3241      241.61497      7.4755081    
   9010000   302.79276     -3728.3266      1179.9003      159.27684     -2.0556594    
   9015000   300.13202     -3677.9008      1246.4988      252.50762      19.633377    
   9020000   299.92273     -3697.3628      1123.8834      108.55866     -31.213128    
   9025000   292.77307     -3684.7838      1200.0323      133.35123      4.6037588    
   9030000   299.75108     -3685.1603      1254.6728      250.01557      9.1845505    
   9035000   301.24321     -3689.0158      1216.3689      221.19946      15.965322    
   9040000   298.59315     -3708.1625      1208.3433      170.32918      9.1358753    
   9045000   300.83455     -3696.6733      1192.7815      186.30019     -2.6327643    
   9050000   296.31755     -3736.5039      1175.4205      88.715566      5.7933044    
   9055000   303.68602     -3701.0296      1203.7457      218.4071      -8.2510075    
   9060000   301.86455     -3701.4727      1215.9929      213.92293     -15.051557    
   9065000   304.72213     -3717.1175      1240.3518      248.19067      29.319664    
   9070000   304.27871     -3720.5933      1158.1216      158.51937      3.2638122    
   9075000   303.6771      -3714.2272      1227.5076      228.89165      3.9385203    
   9080000   301.79765     -3689.7651      1253.6848      262.72415      19.444405    
   9085000   301.95043     -3676.256       1207.0821      230.99676      40.129746    
   9090000   301.10145     -3709.8647      1180.0733      162.78732      18.412538    
   9095000   296.67884     -3724.3067      1217.6551      146.37812      6.5454415    
   9100000   303.76246     -3704.5658      1156.2846      168.09342     -23.048347    
   9105000   303.56802     -3709.078       1219.2334      224.79118     -13.517965    
   9110000   304.6649      -3714.2111      1232.1407      242.37416      14.000925    
   9115000   293.9933      -3737.9573      1200.485       91.542219     -4.7782787    
   9120000   293.24952     -3718.6785      1255.5443      159.22914      2.5960903    
   9125000   300.56474     -3712.3724      1188.2079      163.61468     -21.005026    
   9130000   297.74957     -3704.8854      1198.9194      156.63867      0.86250663   
   9135000   305.00032     -3727.973       1179.7418      179.21285     -8.0185645    
   9140000   300.40086     -3715.1695      1185.6948      156.83898      22.846554    
   9145000   307.36193     -3742.0949      1251.1479      257.61567      8.7882424    
   9150000   297.68217     -3714.8519      1222.4579      169.60798      42.936827    
   9155000   291.94753     -3717.3677      1198.7889      92.14157       21.435926    
   9160000   298.04203     -3724.2077      1174.983       115.9953      -0.75179307   
   9165000   297.06368     -3747.9875      1199.9654      108.44915      4.512821     
   9170000   299.5262      -3722.8586      1209.8941      165.52754      8.7531103    
   9175000   306.78061     -3716.4517      1223.7743      250.68682      0.24590315   
   9180000   299.59872     -3728.1716      1194.0725      145.04161     -8.9071494    
   9185000   300.35497     -3705.678       1230.4819      210.70732     -3.5242354    
   9190000   297.46342     -3705.4872      1200.9417      155.50035     -43.112967    
   9195000   296.33921     -3698.0841      1192.6756      144.5842      -1.0452871    
   9200000   297.93091     -3703.8614      1180.4981      140.86296     -13.817464    
   9205000   307.76579     -3676.1212      1176.9838      253.0367      -25.470652    
   9210000   309.1918      -3696.8807      1234.0259      302.07132     -6.3817593    
   9215000   303.63583     -3699.0275      1214.661       230.87579      6.5088898    
   9220000   303.73974     -3714.1206      1254.6395      256.69032     -29.476114    
   9225000   295.99082     -3655.4298      1211.8495      203.29691      7.1751449    
   9230000   306.71901     -3698.8058      1212.3252      256.33273     -14.093062    
   9235000   299.66017     -3703.2735      1178.0996      154.51627      24.712762    
   9240000   301.04058     -3710.8537      1199.4243      180.60496     -4.4895673    
   9245000   299.94875     -3712.6235      1197.6698      167.31712      21.718722    
   9250000   300.3972      -3686.3692      1211.9975      211.90932     -7.849861     
   9255000   300.54651     -3729.9956      1235.5025      193.12303     -0.69237053   
   9260000   312.76952     -3731.8511      1224.8028      289.87119     -7.1248385    
   9265000   298.18051     -3723.796       1190.7147      133.37713      17.362921    
   9270000   296.95481     -3743.1371      1271.6552      184.01576      11.515804    
   9275000   300.86504     -3747.061       1216.9313      160.33487     -1.4957611    
   9280000   304.14987     -3730.5392      1253.2412      242.54097      1.9803853    
   9285000   300.07849     -3710.4675      1176.1058      149.06923      12.539273    
   9290000   295.30897     -3701.6624      1220.9577      160.07514     -4.7881251    
   9295000   299.60429     -3704.2294      1200.0561      175.01722     -20.798136    
   9300000   300.52638     -3705.873       1246.6237      228.18685      17.953796    
   9305000   302.58179     -3690.3024      1185.7653      201.2794       22.780398    
   9310000   303.93339     -3693.2518      1203.3174      227.96877      5.7662963    
   9315000   312.90089     -3710.4688      1201.2236      288.84914      1.631564     
   9320000   297.95721     -3715.3229      1201.3494      150.488        2.0188025    
   9325000   296.23566     -3704.9836      1208.8727      152.95583     -10.847598    
   9330000   303.3252      -3715.2851      1215.0426      212.2219      -5.7115131    
   9335000   298.85801     -3694.6613      1216.8734      194.72892      27.299538    
   9340000   292.85384     -3727.9227      1235.5288      126.43116      19.951253    
   9345000   301.97932     -3707.9029      1219.6737      212.19975     -18.826234    
   9350000   303.28601     -3704.6999      1200.2538      207.66783      10.832879    
   9355000   297.04407     -3725.9257      1232.7866      163.15678      6.5595714    
   9360000   296.57038     -3737.9868      1192.7174      106.79044      2.4990012    
   9365000   306.51569     -3722.9289      1230.2521      248.31841      12.960685    
   9370000   290.09115     -3729.6932      1216.9443      81.37101       4.4468346    
   9375000   306.87986     -3714.7216      1178.1016      207.63169      6.4097533    
   9380000   300.84598     -3697.0919      1190.5846      183.78683      17.062788    
   9385000   300.68001     -3725.9637      1244.7422      207.58849     -16.190266    
   9390000   307.2152      -3731.3682      1182.4381      198.32034     -1.5968171    
   9395000   298.43989     -3721.2373      1233.3931      180.9336       6.7776638    
   9400000   296.83405     -3691.7011      1288.3725      251.08913      0.84783898   
   9405000   302.06384     -3722.8945      1227.1261      205.41638      23.794862    
   9410000   302.11247     -3740.8484      1205.7674      166.53862      2.3951171    
   9415000   305.82788     -3749.6522      1195.9124      181.1046      -0.55769284   
   9420000   303.82782     -3772.073       1254.9292      199.81527      41.395574    
   9425000   296.81612     -3747.8764      1199.4567      105.83771      15.025298    
   9430000   300.62268     -3735.161       1201.7328      154.86918     -9.840269     
   9435000   299.46312     -3734.3849      1214.6502      158.1934      -1.3836284    
   9440000   298.56127     -3733.4298      1246.5385      182.97204     -19.642175    
   9445000   304.51694     -3722.0829      1208.7955      209.83409     -21.502276    
   9450000   299.1439      -3712.2261      1229.3819      192.22917     -13.968081    
   9455000   304.04284     -3745.6922      1223.2132      196.40284     -0.94579754   
   9460000   300.13842     -3752.1856      1192.6819      124.46314     -10.720656    
   9465000   295.0274      -3722.7962      1259.1474      174.61304      24.955585    
   9470000   299.16241     -3747.0157      1212.0463      140.26961     -0.51408898   
   9475000   304.941       -3717.0459      1212.3053      222.17299      20.177205    
   9480000   295.84952     -3704.0099      1229.1311      170.73489     -2.8135818    
   9485000   302.58747     -3730.5806      1224.7954      200.08208      15.798737    
   9490000   305.28493     -3685.3977      1210.7826      255.37398      7.7384121    
   9495000   303.78098     -3747.3765      1210.9222      180.08598      30.959135    
   9500000   293.85969     -3721.3704      1223.8942      130.34361     -24.79888     
   9505000   303.0371      -3714.4666      1209.6096      205.03106      11.383745    
   9510000   298.49908     -3727.8298      1176.9882      118.4656       12.06438     
   9515000   295.42036     -3711.8964      1174.4178      104.29728     -20.848382    
   9520000   295.84802     -3741.1007      1194.3719      98.871396     -5.9580164    
   9525000   298.91281     -3746.6222      1215.109       141.49366     -22.627576    
   9530000   306.36396     -3740.532       1190.5059      189.61227      1.1157306    
   9535000   290.41309     -3722.127       1275.1467      150.01837     -18.678371    
   9540000   307.37241     -3731.1121      1220.2044      237.74866      24.964907    
   9545000   296.18741     -3752.9019      1256.0178      151.75119     -2.4368116    
   9550000   297.95828     -3732.5499      1198.7674      130.68859     -11.809165    
   9555000   299.85195     -3735.5814      1218.3066      164.13029     -14.973738    
   9560000   301.59119     -3749.5885      1262.7191      210.0888      -5.0430601    
   9565000   291.65901     -3756.861       1196.9571      48.23641       30.447222    
   9570000   295.51066     -3715.9817      1216.8261      143.42791      6.9100025    
   9575000   304.29742     -3748.4656      1247.8931      220.586        14.385332    
   9580000   298.37135     -3703.4018      1172.7304      137.49356      18.003703    
   9585000   302.77281     -3727.8607      1181.0863      160.75035      25.922768    
   9590000   301.30202     -3751.4732      1219.1394      162.03851      13.727145    
   9595000   307.64411     -3745.7477      1185.7718      191.11012     -38.318856    
   9600000   299.07481     -3724.3326      1178.8124      128.93543      8.6519273    
   9605000   305.02588     -3753.3127      1194.3159      168.67579      9.0956499    
   9610000   295.85022     -3752.9842      1173.5701      66.205882     -5.2588247    
   9615000   309.45371     -3751.2625      1207.1786      223.18427      37.951886    
   9620000   304.20545     -3778.2083      1215.806       157.93361      25.939       
   9625000   300.46581     -3745.0202      1197.7407      139.61499      15.788682    
   9630000   297.48988     -3778.5421      1208.5786      90.318947     -7.3887197    
   9635000   290.73337     -3789.1016      1198.5925      9.3537007      32.517493    
   9640000   296.74049     -3793.199       1168.2537      28.635762      20.19985     
   9645000   299.21682     -3770.1522      1168.0262      73.599599      2.5026858    
   9650000   306.68734     -3788.2158      1217.1294      171.4437      -35.222724    
   9655000   299.12829     -3788.7785      1208.8664      95.021657     -0.31106525   
   9660000   302.67191     -3804.1682      1190.9565      93.410799      8.8669056    
   9665000   302.16557     -3780.2519      1221.8977      143.74028     -14.405078    
   9670000   299.42644     -3813.8359      1180.8752      44.639382      50.392442    
   9675000   301.58508     -3801.0872      1224.6153      120.43172      7.010929     
   9680000   300.4137      -3789.7775      1217.6524      114.30343      19.107096    
   9685000   293.28932     -3792.4647      1176.168       6.4226345     -13.380433    
   9690000   302.74636     -3788.2518      1204.4862      123.52264     -9.8121569    
   9695000   299.33035     -3782.4401      1173.1986      67.499265      19.40747     
   9700000   304.47508     -3761.3047      1203.0008      164.44322     -16.538085    
   9705000   310.23495     -3783.1127      1167.8092      158.95095      17.325583    
   9710000   300.11088     -3772.581       1271.3922      182.53173      5.039535     
   9715000   306.90499     -3769.8359      1202.7411      177.38167      13.797133    
   9720000   294.30382     -3766.4502      1190.8122      56.153326     -11.226935    
   9725000   293.64581     -3758.1946      1223.3597      91.072184      10.027911    
   9730000   301.56961     -3761.3512      1233.5029      168.91689      21.653985    
   9735000   307.88187     -3781.2577      1211.5422      183.49656      13.61284     
   9740000   300.68781     -3746.1706      1208.237       150.94617     -15.405733    
   9745000   301.30071     -3776.8569      1233.906       151.40965      32.94081     
   9750000   296.57452     -3719.6564      1216.2929      148.73348     -0.63541143   
   9755000   299.88787     -3745.1358      1224.7039      161.2944       0.12171948   
   9760000   300.93252     -3749.5299      1231.0135      172.55165      14.153468    
   9765000   304.70905     -3718.7286      1203.8775      209.98835      20.477347    
   9770000   302.04726     -3758.1838      1240.5478      183.40055     -11.514992    
   9775000   301.87859     -3741.8305      1209.6432      167.3409      -3.07037      
   9780000   302.93883     -3712.7112      1230.2368      226.53497      5.0756377    
   9785000   307.30794     -3731.6144      1220.2052      236.67059      14.97774     
   9790000   288.7211      -3721.2249      1206.0905      66.733826     -7.1305707    
   9795000   300.76251     -3735.0233      1227.2379      181.76226      36.974043    
   9800000   298.82456     -3749.2534      1193.6642      116.62852      19.442096    
   9805000   304.87367     -3781.9331      1217.3121      161.69053     -6.8781582    
   9810000   295.48402     -3731.1403      1270.0862      181.29111     -23.756822    
   9815000   299.88664     -3757.7838      1161.6293      85.560906      3.3548862    
   9820000   300.33788     -3770.9628      1196.6209      111.40857     -5.604175     
   9825000   291.8136      -3807.3624      1177.8186     -20.020946     -13.428857    
   9830000   292.74161     -3782.9625      1186.8197      21.678588      13.72409     
   9835000   299.1329      -3783.8765      1182.4719      73.570451      3.3265702    
   9840000   308.45008     -3803.0375      1203.1679      158.42366     -18.725189    
   9845000   295.00834     -3783.6555      1223.4484      77.884424     -16.701335    
   9850000   304.59967     -3792.479       1211.4977      142.87997      18.117173    
   9855000   306.2985      -3793.8706      1205.9024      151.0847       13.85037     
   9860000   300.92393     -3817.4091      1231.1617      104.74387      24.815555    
   9865000   301.71915     -3777.7867      1257.0363      177.35202      3.6877942    
   9870000   291.08998     -3795.4091      1195.6036      3.2463944      16.200589    
   9875000   305.42617     -3771.5872      1216.787       176.45195      14.991153    
   9880000   299.759       -3812.5691      1197.4512      65.456118     -15.089201    
   9885000   307.52003     -3808.4883      1196.9261      138.41419      5.070638     
   9890000   292.70613     -3817.447       1234.7706      34.827721      7.6535386    
   9895000   307.84865     -3805.6477      1230.7345      178.00186     -38.326583    
   9900000   290.62779     -3801.9043      1215.0693      12.083692     -12.920174    
   9905000   305.93118     -3798.364       1167.4519      104.85615      13.429131    
   9910000   302.56927     -3796.9321      1156.0083      64.780757      18.683455    
   9915000   298.73492     -3811.6138      1220.4532      80.25554       7.5090455    
   9920000   292.67761     -3809.6209      1204.2798      11.908014      4.8098713    
   9925000   294.65638     -3813.5261      1197.0404      18.458386     -25.642322    
   9930000   300.54291     -3800.8526      1265.4694      152.20073      19.580115    
   9935000   299.63617     -3761.2033      1184.9181      103.19035      19.616913    
   9940000   306.62112     -3804.611       1179.6588      116.98581      14.688329    
   9945000   302.40404     -3831.8886      1239.664       112.00242     -3.7504831    
   9950000   298.82988     -3832.2114      1239.7553      79.809319     -1.1134955    
   9955000   311.62519     -3792.3964      1218.9323      213.22244     -8.2676106    
   9960000   297.56394     -3796.6553      1196.6289      60.918272     -20.725237    
   9965000   298.72515     -3800.7213      1243.7579      114.36546      0.53647844   
   9970000   306.17128     -3811.196       1224.1182      150.83755     -15.091522    
   9975000   300.50588     -3816.3698      1208.2068      79.089832      6.9431373    
   9980000   300.3007      -3809.0607      1187.7389      64.096254     -12.661349    
   9985000   299.4021      -3800.0619      1258.8806      136.20118      1.0057925    
   9990000   301.15484     -3795.9375      1185.8826      83.001223      18.501402    
   9995000   298.61322     -3836.65        1215.632       49.309914      3.0599429    
  10000000   303.27726     -3791.4809      1206.7409      127.29571      2.9062359    
  10005000   302.35058     -3789.1525      1246.4718      161.06823      36.210664    
  10010000   295.80328     -3774.6473      1237.7907      108.34359     -5.2153085    
  10015000   294.08954     -3776.862       1245.585       98.598221      0.34881142   
  10020000   298.02601     -3824.5606      1195.2916      35.807787      3.5555329    
  10025000   306.86092     -3796.8126      1190.9234      138.19314     -5.4595509    
  10030000   299.17429     -3802.1977      1169.8012      42.948672      31.949824    
  10035000   304.54645     -3813.3688      1185.6002      95.616784      3.3605757    
  10040000   296.63688     -3801.1404      1253.2564      104.77057      19.101529    
  10045000   302.5195      -3737.7163      1215.6847      183.22793      14.589317    
  10050000   296.26499     -3782.9377      1192.9617      59.352888     -5.139921     
  10055000   295.50463     -3783.1634      1169.4719      28.838027     -0.088689404  
  10060000   296.21398     -3792.5554      1229.2889      85.60633       16.755692    
  10065000   299.73833     -3795.1125      1185.1042      70.380742     -14.094545    
  10070000   297.43061     -3802.1942      1172.1861      29.744311      6.8776986    
  10075000   305.99765     -3781.9684      1214.5117      168.90591     -4.632982     
  10080000   301.64644     -3808.7362      1227.6621      116.37812      13.845925    
  10085000   304.92783     -3807.1636      1172.2156      91.847779      19.227411    
  10090000   296.28461     -3811.7397      1233.5417      71.306378     -3.9698905    
  10095000   297.55654     -3770.8009      1164.6713      54.748977     -20.979601    
  10100000   293.26974     -3784.5822      1226.2014      64.163415      14.296784    
  10105000   300.57127     -3777.7452      1205.2926      115.38493      6.5949466    
  10110000   305.89193     -3756.6522      1183.4817      162.24672     -15.08425     
  10115000   300.52006     -3765.4017      1248.3809      170.35877      21.056796    
  10120000   291.09707     -3779.4978      1248.8         72.417452      10.552021    
  10125000   300.88239     -3787.8724      1224.2237      126.97094     -0.91812996   
  10130000   302.5095      -3744.9369      1184.0004      144.2335      -11.386818    
  10135000   299.66585     -3781.155       1207.317       105.90298      8.1889061    
  10140000   309.49945     -3791.5662      1196.7449      172.85588      12.140413    
  10145000   301.24987     -3781.0199      1166.0452      78.93116      -11.606993    
  10150000   295.86965     -3795.9242      1247.5711      97.440625      14.997601    
  10155000   296.27634     -3793.0603      1181.0398      37.409991     -6.6838116    
  10160000   295.44311     -3783.3892      1160.0128      18.603062      32.3065      
  10165000   297.37935     -3799.2129      1204.9204      65.001542      10.41558     
  10170000   292.80113     -3818.6851      1222.099       21.767504     -6.938227     
  10175000   293.95793     -3815.5814      1247.9234      61.040223      20.792856    
  10180000   297.19645     -3806.0998      1206.9941      58.55276       2.5116372    
  10185000   301.69482     -3825.7638      1203.264       75.385069      1.7903399    
  10190000   301.99026     -3827.1887      1207.2525      80.590622      24.182892    
  10195000   302.15702     -3793.1571      1173.2074      82.068324     -2.2617632    
  10200000   303.64456     -3801.9363      1187.5298      100.91382     -15.468898    
  10205000   296.39553     -3773.2271      1187.1706      64.439934      21.307997    
  10210000   304.93381     -3772.624       1216.9767      171.20204      3.2156896    
  10215000   300.46048     -3814.9008      1226.7685      98.714601      38.728742    
  10220000   301.9713      -3778.3729      1226.0663      148.05066     -8.0389043    
  10225000   301.95497     -3799.5632      1170.6712      71.31924      -8.4768499    
  10230000   301.59275     -3795.7621      1225.1822      126.39229      8.7341696    
  10235000   303.40634     -3812.402       1209.3542      110.14227      25.04457     
  10240000   302.05216     -3806.1043      1138.8875      33.86355       2.3664493    
  10245000   301.82793     -3791.9698      1172.2762      79.381654      25.801408    
  10250000   299.57925     -3811.3136      1238.8735      106.52646      41.707455    
  10255000   299.73196     -3787.0616      1176.6318      69.902321      13.312031    
  10260000   303.79189     -3793.13        1250.8316      174.33933     -13.873615    
  10265000   303.8085      -3785.4842      1218.9453      150.24737      36.884757    
  10270000   299.07748     -3772.086       1221.1788      123.5722       19.510872    
  10275000   303.0754      -3771.1135      1221.603       160.72017      36.522461    
  10280000   302.44234     -3811.0886      1243.9955      137.47641     -15.257025    
  10285000   299.01979     -3786.4537      1218.1813      105.69115      1.7110287    
  10290000   306.85445     -3759.3186      1217.7947      202.50055      43.813776    
  10295000   296.97476     -3778.4665      1218.0566      95.26612       4.9007348    
  10300000   300.39364     -3786.7436      1180.9296      80.435108      12.255998    
  10305000   300.39865     -3738.1971      1211.8204      159.91727     -15.102244    
  10310000   294.24446     -3758.854       1189.4047      61.811261      13.571644    
  10315000   297.70032     -3774.0903      1264.0081      152.08207      35.651938    
  10320000   296.31208     -3753.4347      1236.7351      133.05051     -2.3976169    
  10325000   300.07169     -3780.6224      1190.4001      93.147805      2.7671584    
  10330000   301.0989      -3775.8275      1184.8519      101.58026      19.400455    
  10335000   298.5337      -3808.2526      1186.3859      47.750136     -14.451848    
  10340000   300.26201     -3781.3961      1228.1311      131.80709     -6.3609114    
  10345000   311.86438     -3758.8647      1200.6304      230.59107     -6.8311993    
  10350000   299.03624     -3774.9364      1190.2291      89.403456     -28.298243    
  10355000   304.10867     -3780.7429      1149.3234      88.050996     -0.021461672  
  10360000   310.13037     -3798.4123      1207.9424      182.84921      17.303976    
  10365000   291.03416     -3777.4754      1218.1843      43.261606     -18.128209    
  10370000   298.83309     -3744.0133      1200.4419      128.72263      15.844261    
  10375000   303.30121     -3733.3221      1201.5453      180.47298     -11.185931    
  10380000   294.91571     -3771.4067      1230.6936      96.550064      22.024465    
  10385000   304.07558     -3774.5525      1190.6919      135.31408      8.734822     
  10390000   310.18902     -3742.9768      1220.1089      250.97579     -21.401805    
  10395000   295.22687     -3760.5845      1194.4566      73.917669      10.970497    
  10400000   297.78482     -3753.6484      1178.9362      88.207804      26.77413     
  10405000   305.97103     -3768.262       1194.0291      161.89167     -27.009924    
  10410000   308.10061     -3764.7912      1207.2338      197.61077     -12.861605    
  10415000   298.64298     -3776.1042      1188.9992      83.48905      -9.281919     
  10420000   300.86129     -3781.2942      1232.6894      141.82637      22.68804     
  10425000   308.36991     -3804.4776      1246.9898      200.08853      14.389145    
  10430000   301.03604     -3821.3396      1203.4882      74.142334     -8.6210668    
  10435000   300.04712     -3803.1175      1212.8344      92.867255     -1.8315587    
  10440000   311.651       -3766.0431      1175.0221      195.89631      2.553248     
  10445000   295.96361     -3807.8256      1151.083      -10.108682      13.327603    
  10450000   300.35176     -3794.4133      1197.1763      88.637642     -4.4228067    
  10455000   300.54517     -3785.0206      1226.5947      129.17825      3.778399     
  10460000   298.60607     -3793.4323      1236.9376      113.76923     -4.1168827    
  10465000   303.50104     -3822.0334      1222.6772      114.6806      -10.59704     
  10470000   294.70562     -3817.0133      1174.2368     -7.3920366     -35.90761     
  10475000   296.81299     -3808.7984      1216.0683      61.499457      19.875211    
  10480000   305.49537     -3800.9868      1217.1321      148.01628     -20.382285    
  10485000   303.79785     -3811.4218      1219.6049      124.87419      8.461607     
  10490000   313.26578     -3815.7624      1226.4336      212.02854      32.50597     
  10495000   298.17555     -3815.9261      1244.5399      95.027826     -4.696296     
  10500000   288.51482     -3827.3756      1195.2508     -52.101218     -4.0097667    
  10505000   305.34631     -3818.3865      1271.8661      184.01766     -0.56985894   
  10510000   304.47826     -3847.0243      1155.5429      31.294188      13.831048    
  10515000   302.68666     -3827.565       1181.9659      61.155265      29.231564    
  10520000   297.47147     -3792.7369      1269.5268      136.90773      14.959856    
  10525000   304.62716     -3798.1814      1153.0258      78.951437      10.471204    
  10530000   301.02311     -3802.2342      1250.9791      140.62304      6.954182     
  10535000   307.17737     -3814.401       1198.0295      130.54061      8.4135027    
  10540000   296.38064     -3771.2636      1190.8966      69.996199     -26.22917     
  10545000   290.49363     -3801.4577      1152.7843     -50.954472     -6.4144089    
  10550000   297.58643     -3828.3674      1178.5119      11.290336     -10.005093    
  10555000   294.55157     -3798.1965      1199.5358      35.346226     -1.1343028    
  10560000   297.048       -3836.7478      1201.5023      21.085483      34.683294    
  10565000   300.44601     -3805.5346      1225.0446      106.22749      36.778085    
  10570000   295.35799     -3800.9751      1253.6506      93.893682      8.9679037    
  10575000   300.28756     -3807.0751      1188.386       66.611342     -1.9332806    
  10580000   305.06526     -3812.0302      1162.9439      78.938525     -0.16415626   
  10585000   291.37473     -3843.5264      1199.3353     -38.592887     -1.7939572    
  10590000   300.09576     -3821.9067      1224.3117      85.99043      -1.3208866    
  10595000   302.47486     -3805.4647      1142.7978      42.193478      3.1084605    
  10600000   297.51493     -3819.5231      1188.7342      29.717579      1.6401293    
  10605000   305.51155     -3817.3627      1215.5214      130.1744       22.931453    
  10610000   291.42221     -3798.9739      1220.581       27.629837      13.213823    
  10615000   289.97251     -3786.9764      1204.8575      10.94002       22.313328    
  10620000   299.7735      -3815.73        1263.1918      128.16538      30.462824    
  10625000   304.35619     -3818.0524      1249.0453      152.67687     -30.154262    
  10630000   304.27872     -3811.7558      1232.025       141.26031     -12.073768    
  10635000   305.77293     -3806.5235      1183.0151      110.84471     -5.8258925    
  10640000   308.54386     -3758.0738      1230.3034      231.36157      13.497963    
  10645000   305.81476     -3827.6531      1199.7067      106.78075      29.002412    
  10650000   296.18551     -3795.6039      1209.806       62.820395      19.867637    
  10655000   305.14424     -3809.3975      1171.7274      91.060911      32.351829    
  10660000   303.4432      -3795.3005      1194.4581      112.67711     -10.603194    
  10665000   298.56089     -3815.2209      1242.2988      96.937818     -6.1893419    
  10670000   290.81674     -3791.1003      1169.0848     -21.407092     -7.4895181    
  10675000   304.26545     -3780.4751      1185.7946      126.19203     -20.125228    
  10680000   305.12691     -3785.7035      1185.7593      128.63185     -5.6224903    
  10685000   300.50502     -3796.4664      1186.4559      77.234631     -19.630021    
  10690000   303.9937      -3750.9131      1226.2542      193.78359      15.246357    
  10695000   302.77222     -3784.9576      1205.1072      127.66902     -12.650625    
  10700000   301.67572     -3786.0079      1257.156       168.86209      3.0651315    
  10705000   299.34528     -3781.2257      1199.6645      95.313054     -16.783268    
  10710000   301.80173     -3790.8404      1216.5987      124.59926      9.270267     
  10715000   294.05118     -3757.2993      1184.1623      56.395168      5.6805275    
  10720000   302.92376     -3770.7147      1254.1884      192.34832     -12.075484    
  10725000   299.6493      -3769.5641      1186.3552      96.384031     -1.1194542    
  10730000   294.43994     -3780.787       1207.0883      59.309884     -17.07375     
  10735000   296.65263     -3752.7554      1162.9561      62.9961        29.249801    
  10740000   299.20709     -3779.782       1210.3266      106.18305      9.5479823    
  10745000   307.06161     -3734.4655      1208.1047      219.51621      0.12897514   
  10750000   292.38354     -3747.8375      1219.7796      86.561464     -5.895477     
  10755000   293.74536     -3728.477       1209.8301      108.1505      -6.757559     
  10760000   307.37884     -3752.8493      1168.1174      163.98195      9.2266815    
  10765000   296.94157     -3753.47        1196.7207      98.629934      14.855096    
  10770000   296.79018     -3796.4556      1201.1335      58.703277     -24.267863    
  10775000   297.18306     -3757.5561      1244.682       144.66461      15.453874    
  10780000   304.57188     -3775.2322      1208.0625      156.44304      1.8015483    
  10785000   303.96025     -3772.3598      1229.269       175.05249     -8.5142134    
  10790000   297.04335     -3743.696       1228.2736      140.86698      3.7262359    
  10795000   312.30106     -3784.5264      1206.4734      214.67749     -25.721599    
  10800000   301.92955     -3747.0312      1247.0098      199.9625       2.2089771    
  10805000   307.96646     -3773.1404      1276.0963      256.92452      27.920436    
  10810000   299.92673     -3758.8667      1194.4802      117.6873       0.3909328    
  10815000   296.83827     -3750.1319      1222.7871      127.11078      25.63812     
  10820000   298.53858     -3739.8917      1208.5024      138.27106     -18.913581    
  10825000   299.36293     -3724.3103      1255.9129      208.63473      2.3839685    
  10830000   301.87617     -3742.0899      1226.8595      184.27617      15.429067    
  10835000   294.37675     -3725.4437      1173.8227      80.822444      4.6930811    
  10840000   297.54762     -3748.961       1239.8834      151.72119     -17.534029    
  10845000   298.41167     -3747.5391      1203.4818      124.46826     -12.549069    
  10850000   300.89407     -3710.5341      1195.422       175.61203      9.95951      
  10855000   305.78825     -3748.6015      1264.1844      250.07289      4.589154     
  10860000   299.48239     -3748.7183      1211.6883      141.07036     -8.6145603    
  10865000   297.77986     -3744.7344      1222.9824      141.12366      13.471084    
  10870000   300.94715     -3746.3433      1262.6391      207.49462      8.4522803    
  10875000   301.22988     -3765.7133      1251.6153      179.62906     -10.746566    
  10880000   295.24244     -3735.1134      1224.3558      129.42731     -22.00432     
  10885000   301.08282     -3748.2824      1168.384       112.51376     -9.8829287    
  10890000   302.84077     -3741.1483      1171.2331      138.21727      26.951694    
  10895000   300.25193     -3720.5976      1218.5221      182.90644      43.537847    
  10900000   306.92218     -3737.2417      1215.1432      222.53162     -5.8002322    
  10905000   300.00953     -3728.8941      1190.0956      144.01579     -12.29159     
  10910000   302.13256     -3750.3374      1243.3131      194.77505     -7.0219947    
  10915000   295.75155     -3736.2997      1224.2008      132.63869     -6.6436322    
  10920000   297.14732     -3691.6639      1157.3443      122.89951     -20.526426    
  10925000   296.77176     -3699.8403      1188.3913      142.41165      0.37004139   
  10930000   297.50825     -3698.4248      1225.4713      187.49321      19.960588    
  10935000   293.50239     -3738.0923      1249.5889      136.12114      12.271173    
  10940000   300.87431     -3739.6735      1229.8744      180.74839      17.125682    
  10945000   294.84485     -3736.2117      1219.7888      120.20649      20.12068     
  10950000   303.60032     -3696.8747      1175.6658      193.71565      18.664531    
  10955000   306.75708     -3696.3812      1242.8788      289.65139      3.2286613    
  10960000   296.55635     -3688.0013      1191.1626      155.09577      11.249945    
  10965000   297.96169     -3671.617       1204.0981      196.98267      24.906434    
  10970000   297.28202     -3705.7965      1225.23        177.85722      15.793204    
  10975000   304.36471     -3695.329       1190.9966      217.42776      4.1476396    
  10980000   300.13779     -3687.9183      1224.2656      220.3086       0.25845826   
  10985000   295.06682     -3693.9774      1254.4837      199.12084      13.998851    
  10990000   299.33455     -3668.7545      1213.2878      221.31162     -17.162811    
  10995000   303.56833     -3693.2505      1197.3598      218.74794      32.580687    
  11000000   302.56402     -3680.3653      1257.7927      283.08498     -2.8074326    
  11005000   311.37906     -3698.391       1159.1893      245.2838       30.294416    
  11010000   299.89404     -3680.8035      1247.2366      248.21456     -2.7863731    
  11015000   297.21081     -3646.2621      1232.9019      244.42667      24.346038    
  11020000   290.18088     -3658.2555      1188.4818      125.14851      8.8754226    
  11025000   302.33103     -3697.0007      1192.2394      198.81286      7.5452495    
  11030000   294.73709     -3670.6216      1225.2282      190.27239      7.7979517    
  11035000   307.24768     -3697.4994      1161.0818      211.12335      28.165295    
  11040000   297.56625     -3698.1942      1205.021       167.79219      22.13042     
  11045000   295.05031     -3690.0793      1233.1115      181.49899      2.1243357    
  11050000   299.71974     -3650.4672      1208.8401      238.59567      8.4744071    
  11055000   303.21857     -3671.2543      1221.383       261.63961      7.3765561    
  11060000   292.0742      -3648.9305      1191.7983      154.7209      -7.5393175    
  11065000   303.57813     -3671.6508      1232.232       275.30744      22.151794    
  11070000   303.59211     -3675.5403      1222.79        262.10088     -15.688513    
  11075000   303.31963     -3636.6235      1165.325       241.11622      14.646325    
  11080000   296.1058      -3671.7141      1162.4425      138.63378     -22.898345    
  11085000   301.1916      -3644.5383      1224.8569      273.70342     -12.793462    
  11090000   297.60903     -3657.9577      1278.7322      282.12245     -16.222626    
  11095000   303.03794     -3626.6658      1213.143       296.37278      7.8047307    
  11100000   306.01818     -3642.6284      1178.0411      271.95898      4.22128      
  11105000   297.44405     -3649.5583      1194.3798      204.69413     -5.2598633    
  11110000   297.85123     -3646.8305      1201.181       217.86428     -14.618411    
  11115000   295.00263     -3632.032       1188.3478      194.3561      -8.2907635    
  11120000   301.70397     -3643.7312      1166.9861      221.22153      1.6831272    
  11125000   302.73294     -3650.3032      1211.6432      268.50818      18.762088    
  11130000   296.67379     -3627.7641      1198.3139      223.53446      7.3785124    
  11135000   302.36014     -3648.4376      1218.2466      273.64346     -5.0619009    
  11140000   301.02428     -3650.8753      1218.6755      259.68885      17.144483    
  11145000   297.59568     -3673.0176      1188.2577      176.46868     -10.390003    
  11150000   298.9875      -3638.5916      1209.5259      244.60916      23.96248     
  11155000   302.3628      -3665.5577      1205.7942      244.09463     -14.737304    
  11160000   294.44517     -3661.2458      1211.2326      183.04217      6.1053556    
  11165000   297.21085     -3666.5642      1226.9645      218.18753     -6.3583327    
  11170000   304.45898     -3643.7119      1214.9089      293.80028     -15.195029    
  11175000   298.73102     -3680.8266      1186.0366      176.5913      -28.640858    
  11180000   305.8459      -3690.5581      1177.9231      222.37066      14.121984    
  11185000   304.62699     -3652.2338      1234.2903      306.16211     -23.027297    
  11190000   295.33204     -3668.0673      1218.7778      191.69659     -8.5735079    
  11195000   301.37223     -3664.0133      1251.9721      282.95893      6.3459657    
  11200000   301.64819     -3683.2703      1198.7595      212.95705     -10.674854    
  11205000   311.47545     -3688.48        1200.5086      297.37606      9.8970142    
  11210000   296.24898     -3687.8076      1206.3927      167.77096      0.55938211   
  11215000   293.27057     -3715.8058      1212.3124      119.05825      20.330292    
  11220000   292.44572     -3697.7503      1218.7833      136.20839      9.1724573    
  11225000   306.25032     -3706.2472      1216.8696      249.24442      10.289026    
  11230000   299.25023     -3718.4456      1198.9453      156.52399     -23.352854    
  11235000   298.57032     -3706.3018      1203.7578      167.40023     -6.3872674    
  11240000   300.56123     -3699.1734      1186.9829      175.55733     -5.9305463    
  11245000   302.71518     -3698.503       1218.2391      226.74554      12.954052    
  11250000   299.09417     -3680.1669      1240.4813      234.94312     -29.647804    
  11255000   308.84326     -3680.4003      1200.7161      282.12513      3.4961153    
  11260000   301.38018     -3672.7771      1198.3673      220.66144     -12.877121    
  11265000   309.6403      -3699.8204      1232.4376      301.55394     -1.6501873    
  11270000   300.82289     -3698.1709      1229.1829      221.09968      22.255427    
  11275000   297.25398     -3687.5321      1169.12        139.76079      2.4826341    
  11280000   309.6738      -3687.4082      1159.9031      241.73132      3.5222868    
  11285000   297.05846     -3680.7078      1242.1498      217.86655      12.995074    
  11290000   292.72231     -3680.1817      1188.7275      126.19459      15.126982    
  11295000   305.13488     -3653.0281      1205.3593      280.97854     -0.41961006   
  11300000   302.20535     -3704.0824      1211.9232      210.29104      10.448068    
  11305000   305.20458     -3682.7009      1233.6717      280.24148      29.693371    
  11310000   296.05109     -3707.9262      1216.4135      155.90348      23.188176    
  11315000   302.75304     -3674.0895      1240.5257      273.78411     -4.5832319    
  11320000   299.8175      -3681.7567      1187.0321      186.37238     -10.89839     
  11325000   297.73394     -3675.7974      1234.0854      220.75305      10.490435    
  11330000   297.94551     -3714.794       1201.0928      150.65575     -22.667707    
  11335000   297.89262     -3715.389       1169.7131      118.20796      16.458517    
  11340000   291.60979     -3709.4842      1237.4721      135.68801     -5.935445     
  11345000   292.93195     -3677.228       1252.8548      195.15023     -0.87772589   
  11350000   297.45681     -3697.3603      1197.3627      159.98915      5.023987     
  11355000   311.52766     -3701.0166      1218.9567      303.75444      12.123387    
  11360000   302.50594     -3682.7312      1172.6679      195.07493     -15.07669     
  11365000   306.76541     -3733.7035      1173.8734      183.39821      17.423327    
  11370000   300.2935      -3731.4969      1215.8006      169.65743      14.560816    
  11375000   302.28241     -3734.8988      1178.2806      146.52117     -24.853382    
  11380000   302.61236     -3739.1959      1215.9163      182.81017     -1.1406331    
  11385000   300.05076     -3701.3684      1210.2907      192.10531      14.808261    
  11390000   302.34249     -3728.6433      1186.9106      161.94391     -1.6590069    
  11395000   301.49695     -3740.4446      1245.8701      201.54094      1.5662938    
  11400000   289.53432     -3753.2544      1240.8558      76.741898      3.5662366    
  11405000   300.6987      -3706.6192      1217.1095      199.46748      12.289572    
  11410000   290.23706     -3753.0105      1214.7104      57.12455      -8.690994     
  11415000   300.02884     -3726.1759      1227.2227      184.03373      12.986302    
  11420000   306.83312     -3709.9806      1211.278       245.13119     -13.850245    
  11425000   306.50986     -3733.9768      1214.922       221.88821      23.676402    
  11430000   305.39686     -3713.2124      1180.9127      198.69039      27.473111    
  11435000   311.1119      -3709.3068      1179.445       252.23467      24.022259    
  11440000   300.79585     -3697.9241      1250.0363      241.95813      21.925345    
  11445000   300.34054     -3700.5405      1228.9015      214.13526     -29.534037    
  11450000   309.15859     -3704.6457      1223.3572      283.34057     -9.4118684    
  11455000   302.35733     -3670.6401      1222.2193      255.38852     -9.0459268    
  11460000   300.95233     -3717.3892      1224.9116      198.76759      18.4602      
  11465000   293.78423     -3728.5522      1170.5449      69.137707     -1.7466499    
  11470000   302.88488     -3738.4088      1195.1447      165.26282      7.1432943    
  11475000   301.90021     -3727.4862      1234.9434      207.17877     -0.80939525   
  11480000   304.93095     -3695.2721      1205.5499      237.10145     -12.874619    
  11485000   295.29988     -3694.3275      1202.7288      149.09984      22.426606    
  11490000   295.53835     -3730.6848      1189.8259      101.97215     -8.0554176    
  11495000   300.80406     -3720.9546      1197.5034      166.46802      28.010373    
  11500000   289.69939     -3711.6659      1223.3975      102.34822     -36.859951    
  11505000   294.42386     -3730.2313      1231.5112      134.14473      35.417917    
  11510000   299.32579     -3727.0625      1212.7865      162.42386      9.1174544    
  11515000   296.11522     -3752.3081      1199.2227      94.904283      3.0995389    
  11520000   290.58936     -3724.1054      1191.0313      65.500941     -1.6954648    
  11525000   298.64726     -3698.4494      1211.8936      184.07651      7.600756     
  11530000   304.60591     -3725.5972      1135.2207      133.54056      9.7098909    
  11535000   298.28035     -3712.4111      1259.4158      214.35591     -3.3319182    
  11540000   299.01368     -3742.7412      1207.5137      138.68145      13.390124    
  11545000   295.93031     -3729.6367      1229.5488      146.24825      9.6175877    
  11550000   310.41299     -3724.3263      1257.3889      308.90909      21.310551    
  11555000   299.95294     -3704.1464      1204.0268      182.18854      7.6528812    
  11560000   301.32403     -3734.2951      1202.8143      163.08828      16.227015    
  11565000   296.17001     -3719.1227      1207.0521      136.40903      2.4012064    
  11570000   296.15863     -3704.1806      1164.6658      108.86301     -1.9777568    
  11575000   296.61199     -3726.1684      1220.3101      146.57376      2.1976067    
  11580000   302.96687     -3734.3972      1192.0012      166.86402     -32.979931    
  11585000   306.5633      -3749.2928      1217.713       209.84115     -11.040763    
  11590000   295.2962      -3753.3223      1239.4128      126.7561       17.37926     
  11595000   299.00683     -3748.4151      1200.2079      125.64046     -16.795516    
  11600000   309.48102     -3734.2957      1185.9724      219.18902     -16.615913    
  11605000   298.77563     -3737.1494      1262.5079      197.13872     -2.5399726    
  11610000   312.07242     -3743.9398      1210.1612      256.90717     -2.5282584    
  11615000   298.5971      -3721.5976      1257.7468      206.33294     -16.48571     
  11620000   296.52215     -3707.4522      1216.4829      160.65929     -2.1458802    
  11625000   302.36901     -3742.1174      1200.5076      162.30397     -10.520255    
  11630000   303.7275      -3722.349       1190.0976      183.81053      18.239245    
  11635000   301.16282     -3746.6582      1152.2137      98.682971     -23.381507    
  11640000   295.26443     -3730.4741      1184.7232      94.630587      14.148302    
  11645000   301.06856     -3716.2716      1199.4941      175.507        0.84637454   
  11650000   299.65352     -3720.6814      1241.7417      200.6911       4.969134     
  11655000   293.83931     -3758.5861      1215.6855      84.736964     -5.688051     
  11660000   303.93054     -3777.4556      1218.7321      159.15417      22.707297    
  11665000   306.78216     -3736.6589      1260.1204      266.83957      8.6496927    
  11670000   291.10567     -3754.326       1184.3587      33.224843     -30.138791    
  11675000   301.20378     -3728.8208      1211.7286      176.40156     -17.30905     
  11680000   287.23731     -3755.4071      1178.9515     -7.8560626      16.835446    
  11685000   305.39591     -3757.4438      1200.8386      174.37637      29.749018    
  11690000   297.9184      -3771.8059      1181.5976      73.906137     -21.064297    
  11695000   297.97553     -3721.2468      1198.3448      141.72337     -10.878147    
  11700000   299.2171      -3723.9343      1219.5268      171.32057     -14.400437    
  11705000   291.4278      -3710.8793      1199.2497      94.443048      7.7682499    
  11710000   294.3478      -3736.7508      1237.6047      133.03851      10.510705    
  11715000   305.41711     -3730.2829      1209.2703      210.15856     -2.1843651    
  11720000   289.27638     -3720.5468      1250.1439      116.4309      -0.97543044   
  11725000   306.2021      -3748.374       1276.3027      266.11956      15.414058    
  11730000   298.29051     -3711.1374      1231.3534      187.65804     -8.5072098    
  11735000   298.22889     -3743.4639      1255.5082      178.93531      3.1083909    
  11740000   305.30536     -3724.0455      1229.6132      235.73949     -0.41622558   
  11745000   301.39578     -3710.501       1193.054       177.76375      11.610743    
  11750000   304.18903     -3694.2597      1171.0665      196.99597     -14.877346    
  11755000   307.66785     -3714.1892      1217.5456      254.65469      11.073137    
  11760000   291.08566     -3730.3084      1231.2043      103.90912      3.7286562    
  11765000   295.36155     -3725.032       1232.1024      148.32046      13.575879    
  11770000   295.26842     -3724.8415      1213.183       128.75872      12.072218    
  11775000   300.84815     -3742.6266      1190.6143      138.3013      -3.789067     
  11780000   306.49272     -3735.1569      1179.7336      185.36643      11.522785    
  11785000   297.67869     -3718.8398      1204.5985      147.72957     -2.9439411    
  11790000   303.00545     -3744.474       1219.2876      184.41866      4.835995     
  11795000   292.32428     -3703.5989      1212.5641      123.05464      5.3704104    
  11800000   301.30635     -3700.5783      1180.9511      174.78383     -14.136986    
  11805000   305.69642     -3716.1167      1172.3582      189.91039      15.647351    
  11810000   296.90315     -3715.6704      1179.957       119.32227      40.916361    
  11815000   299.16479     -3701.7747      1234.9478      208.43333      21.631874    
  11820000   300.48956     -3685.1492      1182.1114      184.06914      0.92484542   
  11825000   303.73179     -3725.7836      1207.6239      197.94058      7.655972     
  11830000   297.90688     -3715.9171      1140.0191      88.11353      -15.594392    
  11835000   298.25275     -3688.5609      1188.2893      166.83282      42.491949    
  11840000   293.46943     -3727.4423      1219.2048      116.09231     -1.0412192    
  11845000   296.6654      -3732.6224      1140.6151      60.902277      13.213697    
  11850000   299.01938     -3706.4552      1177.9274      145.43208     -10.288248    
  11855000   296.79795     -3721.0463      1225.3269      158.37561      31.177323    
  11860000   299.35293     -3688.1937      1240.8717      229.62064     -1.7837158    
  11865000   299.59211     -3724.0433      1232.3561      187.39429      48.924253    
  11870000   302.54148     -3701.1951      1241.8344      246.09533     -10.833541    
  11875000   300.016       -3697.0014      1187.3811      173.25186      22.46601     
  11880000   297.49359     -3664.7256      1222.6926      218.28262      16.782458    
  11885000   298.29113     -3699.641       1182.9799      150.7865       8.2340678    
  11890000   296.6002      -3697.6824      1236.9135      191.55768      27.780385    
  11895000   290.7778      -3698           1147.8751      50.135206     -17.055794    
  11900000   304.97899     -3691.7797      1227.3193      262.7929       12.578616    
  11905000   292.32009     -3712.4172      1240.6752      142.30999     -17.827479    
  11910000   310.80581     -3720.162       1252.6276      311.82488      1.6187184    
  11915000   306.47967     -3693.7882      1233.004       279.88892      42.148093    
  11920000   298.03422     -3709.041       1211.0347      167.14388     -5.2127961    
  11925000   300.91805     -3710.8535      1227.3982      207.48333      16.168095    
  11930000   303.38074     -3704.1888      1228.5232      237.29552      3.5146509    
  11935000   299.49642     -3683.2308      1198.7941      193.78912     -9.2664924    
  11940000   296.51234     -3727.6564      1208.8818      132.76625      6.5041273    
  11945000   305.33326     -3717.7492      1216.086       228.75824      14.690423    
  11950000   296.85588     -3722.4369      1225.2163      157.39241     -8.9502907    
  11955000   295.46693     -3739.3106      1208.2301      111.11192     -10.578436    
  11960000   307.6813      -3725.1966      1186.7938      213.0158      -3.2043695    
  11965000   302.16129     -3703.7439      1216.768       215.08036     -1.955137     
  11970000   296.79869     -3703.8702      1240.4056      190.63694      13.205086    
  11975000   301.54166     -3736.3505      1174.2187      134.3834       10.267828    
  11980000   305.08247     -3714.2361      1240.8918      254.83439      8.899697     
  11985000   295.23351     -3670.9829      1242.5821      211.70417      19.728954    
  11990000   298.85029     -3714.3045      1230.7231      188.86656     -9.2474244    
  11995000   300.1454      -3703.3703      1209.2325      189.89154      3.5329843    
  12000000   293.92096     -3678.9321      1214.7562      164.19177     -2.6188233    
  12005000   298.09636     -3718.6359      1212.9931      160.06309      24.314186    
  12010000   298.81043     -3700.9694      1212.4272      183.54918      9.95545      
  12015000   291.20608     -3675.1245      1230.2866      159.25214      4.4041289    
  12020000   296.14621     -3684.013       1255.9803      220.23404     -26.249139    
  12025000   301.80573     -3673.0557      1262.0462      287.86713     -13.958589    
  12030000   304.67535     -3702.3793      1257.2466      279.40529      30.827475    
  12035000   301.6771      -3681.4781      1192.2963      208.54455      8.0462144    
  12040000   303.35972     -3680.9612      1220.9879      252.79986     -18.012132    
  12045000   294.87319     -3724.5636      1206.5315      118.85088     -25.716738    
  12050000   296.01093     -3732.9504      1212.0303      126.13701      1.8251759    
  12055000   292.55212     -3703.2598      1201.3059      114.173       -0.36439949   
  12060000   297.68704     -3707.9171      1206.3995      160.52794      18.570127    
  12065000   298.55339     -3693.1758      1173.9466      150.56364      6.5281073    
  12070000   298.89874     -3684.0455      1242.2625      231.09806     -5.9423361    
  12075000   307.29094     -3727.6494      1241.0951      261.37349     -8.6820015    
  12080000   299.95584     -3716.8741      1184.0734      149.53341      9.6282804    
  12085000   294.78352     -3745.8909      1215.2261      105.41629      5.1407346    
  12090000   307.02111     -3719.0408      1205.6406      232.11463     -15.390938    
  12095000   301.50186     -3711.0561      1249.4924      234.59563      3.552749     
  12100000   304.75711     -3742.8047      1213.0365      195.50095      3.108245     
  12105000   296.44014     -3730.3423      1228.5014      149.05433     -11.588094    
  12110000   295.25496     -3728.822       1223.5839      135.05877     -21.967532    
  12115000   295.73468     -3740.2431      1214.1396      118.48316      35.808974    
  12120000   293.60902     -3725.2062      1240.4584      140.83036     -7.3672125    
  12125000   306.80537     -3746.9009      1223.6885      220.37311     -1.0949326    
  12130000   305.50055     -3705.8466      1278.8229      304.89371      28.594315    
  12135000   303.1449      -3740.1085      1214.7194      185.46295     -29.604684    
  12140000   293.33136     -3734.5264      1208.6026      97.171298     -2.9678179    
  12145000   303.75256     -3719.5341      1226.4567      223.20866     -24.248444    
  12150000   301.04368     -3752.146       1218.1942      158.11031      14.019932    
  12155000   298.49099     -3730.9028      1274.4993      212.83134      9.2110124    
  12160000   309.12486     -3731.9497      1210.7946      243.17231     -13.412886    
  12165000   304.39468     -3725.6842      1170.2462      166.59017      22.317432    
  12170000   302.86155     -3693.1835      1210.5899      225.72469     -8.6124459    
  12175000   303.72771     -3768.4922      1207.0372      154.6088       1.6367188    
  12180000   302.22651     -3729.7762      1221.5801      194.44344     -5.2953666    
  12185000   302.83493     -3729.823       1182.2188      160.47597     -2.9450773    
  12190000   298.37249     -3732.7959      1141.7735      77.152814      20.317157    
  12195000   298.24858     -3728.484       1267.2639      205.84698      61.064179    
  12200000   296.59116     -3726.5418      1269.0062      194.71004      25.217198    
  12205000   301.53303     -3735.2756      1183.1123      144.2747      -18.407432    
  12210000   297.98561     -3732.1644      1223.3177      155.86874     -5.735827     
  12215000   297.02925     -3765.8446      1248.312       138.63075     -0.6807978    
  12220000   298.41611     -3753.7397      1215.6213      130.44674      22.422101    
  12225000   298.47509     -3744.6351      1204.7201      129.17767      10.6394      
  12230000   299.08618     -3735.121       1226.7136      166.14994     -2.5945024    
  12235000   298.91819     -3731.9915      1194.1506      135.21408     -1.9202638    
  12240000   303.45693     -3753.6921      1191.8347      151.78497      5.0895512    
  12245000   303.90887     -3742.6523      1219.7248      194.75633      13.76802     
  12250000   301.66604     -3741.5868      1242.9015      198.94225     -16.930843    
  12255000   298.1746      -3755.1176      1173.5534      84.841336     -11.739977    
  12260000   303.92114     -3714.1903      1230.466       234.06935     -4.8974065    
  12265000   304.29891     -3718.9963      1230.4694      232.64491      9.6874078    
  12270000   303.07734     -3687.1476      1243.3487      266.44903      22.438893    
  12275000   300.23205     -3680.3243      1207.5537      212.03354      19.899412    
  12280000   304.93111     -3713.4623      1265.225       278.58796      6.6134124    
  12285000   295.13691     -3704.6008      1210.1588      144.79924     -1.5138406    
  12290000   298.65179     -3685.2324      1238.7291      224.16941     -3.0185628    
  12295000   303.07358     -3701.7002      1164.0817      172.59574     -3.901188     
  12300000   304.1938      -3697.3604      1188.9995      211.87098      9.221699     
  12305000   298.54037     -3738.4623      1202.8381      134.0522       14.789392    
  12310000   297.68853     -3719.4361      1194.0429      136.66569      11.114734    
  12315000   303.01962     -3714.3367      1217.5808      212.97585     -0.2405507    
  12320000   300.34463     -3698.6852      1199.3863      186.5119       19.02781     
  12325000   295.39936     -3721.3969      1230.3599      150.55106     -23.557846    
  12330000   291.36551     -3725.2674      1176.1542      56.402456     -19.084598    
  12335000   296.61401     -3713.5445      1224.5201      163.42567     -1.8577046    
  12340000   300.14162     -3763.2221      1188.545       109.31835      30.352612    
  12345000   298.33505     -3741.4049      1200.038       126.47336      4.791636     
  12350000   298.93532     -3713.3821      1200.5369      160.36299      25.082026    
  12355000   302.63621     -3739.0511      1202.3765      169.62861      3.1584554    
  12360000   297.70241     -3724.0369      1250.0133      188.1594       3.1733692    
  12365000   303.71926     -3728.4617      1282.8352      270.36177      19.773172    
  12370000   296.66454     -3728.2276      1188.1434      112.81763     -16.037018    
  12375000   294.96239     -3718.9671      1240.1096      158.82313      4.7728902    
  12380000   295.79339     -3713.5306      1193.0818      124.66299      42.16494     
  12385000   294.0148      -3740.2851      1235.0194      123.94107      32.669101    
  12390000   289.72822     -3722.6163      1215.7107      83.968691      17.004081    
  12395000   305.15882     -3717.3194      1216.4017      227.94372      13.40838     
  12400000   302.71897     -3738.5167      1224.6789      193.20542      13.908155    
  12405000   305.72677     -3718.8738      1230.2579      245.32434      32.382929    
  12410000   293.55978     -3694.8738      1155.4417      85.705754      16.703969    
  12415000   302.99613     -3727.953       1226.1487      207.7174      -11.112724    
  12420000   300.62214     -3722.1791      1255.7525      221.86587     -1.3430222    
  12425000   302.69883     -3731.5626      1208.763       184.06364     -15.839116    
  12430000   294.34712     -3698.424       1210.2986      144.05313      25.189732    
  12435000   296.92342     -3727.8553      1286.2572      213.61877      2.8921108    
  12440000   298.85667     -3732.2015      1195.5128      135.81617      0.86095839   
  12445000   301.9276      -3669.5276      1159.9002      190.33906      31.946471    
  12450000   306.62305     -3723.8543      1216.551       234.65194     -7.6185864    
  12455000   297.84624     -3730.1518      1175.2597      108.57709      15.091653    
  12460000   300.50986     -3707.0103      1215.2669      195.54509      10.520879    
  12465000   292.48457     -3717.5377      1224.6155      122.60056      0.027394642  
  12470000   297.92692     -3697.3324      1240.0068      206.8651      -14.063597    
  12475000   301.81696     -3717.9018      1263.1605      244.23581      8.3275674    
  12480000   296.72152     -3705.6297      1246.2034      193.98511     -7.0596716    
  12485000   294.17993     -3740.6207      1222.6694      112.73213     -0.98782042   
  12490000   301.19017     -3675.3115      1193.6069      211.66747      25.441094    
  12495000   297.48739     -3680.3946      1175.5078      155.3734      -1.9334614    
  12500000   296.59204     -3666.0789      1177.5532      163.72784     -5.456689     
  12505000   299.74457     -3704.3648      1211.7302      187.81032     -11.387775    
  12510000   295.83991     -3682.0003      1194.0419      157.56933      15.150047    
  12515000   301.26314     -3668.4333      1230.7598      256.35105     -12.64432     
  12520000   296.88633     -3704.6559      1236.2356      186.46499      1.2270196    
  12525000   308.09976     -3672.027       1263.6307      346.76425      2.1923299    
  12530000   301.37863     -3705.3166      1212.0082      201.74897      12.256303    
  12535000   296.01358     -3689.3979      1226.1882      183.87105      5.8552015    
  12540000   303.04027     -3723.0002      1216.7763      203.6925       21.391194    
  12545000   292.3589      -3682.0816      1155.2296      87.547089      23.674842    
  12550000   302.82931     -3700.9398      1192.6197      199.7099      -0.53019182   
  12555000   300.11262     -3724.033       1171.4832      131.18628      36.836674    
  12560000   302.57086     -3735.4394      1218.4006      188.67994     -1.4268581    
  12565000   297.79316     -3729.6574      1224.4024      157.73956      9.6337597    
  12570000   301.08547     -3717.5696      1224.0104      198.8765       19.319342    
  12575000   297.79586     -3728.2754      1207.28        142.02337      0.61335839   
  12580000   295.9745      -3725.8766      1247.2321      168.08675      37.030714    
  12585000   298.74513     -3723.8405      1237.5807      185.24766      0.38387518   
  12590000   299.13992     -3706.9941      1257.3399      225.38357      6.0410338    
  12595000   301.06471     -3724.3875      1229.9124      197.77501      6.3703393    
  12600000   299.52775     -3696.2286      1256.3972      238.6746       9.6993063    
  12605000   301.29285     -3724.7434      1212.9259      182.47268     -20.774665    
  12610000   300.99753     -3711.5149      1221.8074      201.94181      37.843032    
  12615000   302.1778      -3700.9006      1179.4041      180.70733     -35.221826    
  12620000   286.75392     -3708.8623      1244.4502      99.864756      21.391347    
  12625000   294.30078     -3715.0355      1188.4947      105.22337      32.182633    
  12630000   310.18174     -3702.2807      1184.8822      256.37997      9.0020876    
  12635000   307.07418     -3698.4873      1230.7372      278.23931      5.4216188    
  12640000   296.45603     -3704.1895      1228.707       175.55479      11.168218    
  12645000   303.26515     -3693.9545      1212.234       230.20691     -18.076649    
  12650000   295.26889     -3676.879       1206.5145      170.05693     -18.62817     
  12655000   296.10484     -3700.8624      1210.1253      157.15974      11.278067    
  12660000   306.13734     -3685.6253      1285.9633      337.9497       8.2181974    
  12665000   298.58379     -3684.4091      1209.9125      195.56814      41.204028    
  12670000   300.77231     -3677.6834      1186.2612      198.21325     -28.36447     
  12675000   302.11187     -3690.4376      1215.6872      226.86395      18.371595    
  12680000   311.97404     -3712.9705      1198.8205      275.65607     -2.0735998    
  12685000   297.67182     -3668.0574      1251.2549      245.10696      33.600613    
  12690000   303.23702     -3680.5901      1211.9428      243.0285      -42.971177    
  12695000   302.6422      -3682.6064      1212.6946      236.44486      11.962047    
  12700000   307.857       -3698.8439      1220.2457      274.39155     -9.3099049    
  12705000   292.82159     -3705.5217      1217.165       130.17988      1.1012579    
  12710000   297.86418     -3686.3457      1215.1666      192.45052      5.1791517    
  12715000   301.00063     -3677.9676      1194.613       208.3226      -0.88136421   
  12720000   304.22225     -3657.8664      1206.356       268.9758       9.2012439    
  12725000   306.12492     -3673.1854      1230.319       294.63425     -5.0287607    
  12730000   305.65573     -3679.9992      1207.0079      260.31372      0.98143693   
  12735000   297.41547     -3700.9974      1195.0889      153.7086      -4.9714812    
  12740000   302.74411     -3687.6506      1234.4283      254.04584      4.7097344    
  12745000   298.59254     -3653.2808      1204.7469      221.60893      21.659395    
  12750000   307.70057     -3684.4446      1213.4024      280.54871      9.4946317    
  12755000   299.97917     -3671.313       1222.8003      234.03009      20.029267    
  12760000   308.13549     -3686.383       1211.3784      280.47553      4.4435548    
  12765000   308.27864     -3660.3976      1180.2603      276.62297      7.6957895    
  12770000   298.13402     -3684.6184      1223.7784      205.20265     -16.767051    
  12775000   302.26259     -3679.2642      1210.0178      233.7157      -11.679585    
  12780000   297.48501     -3689.8323      1192.04        162.44661      17.453259    
  12785000   302.70853     -3647.2043      1203.322       263.06762      22.991292    
  12790000   295.20047     -3654.9506      1265.7361      250.59509     -12.414924    
  12795000   296.76489     -3655.4256      1196.9967      195.37047      43.5426      
  12800000   305.80143     -3659.3378      1159.0086      234.27868      7.9103073    
  12805000   301.97063     -3635.2102      1243.9479      309.089        4.6226099    
  12810000   300.62777     -3673.4033      1191.1358      206.07529      15.061821    
  12815000   306.88234     -3672.3183      1220.298       292.25359     -6.8424198    
  12820000   295.42089     -3662.6625      1257.8236      236.94171     -4.1029802    
  12825000   297.33004     -3657.5884      1195.6831      196.94782      22.137004    
  12830000   304.99613     -3665.2239      1178.2272      240.40991      8.8209217    
  12835000   292.74338     -3659.9627      1200.7899      158.66444      17.908634    
  12840000   299.82271     -3644.3522      1241.376       278.16746     -19.422792    
  12845000   297.79882     -3662.0871      1218.6745      219.63251      2.6568543    
  12850000   299.89717     -3621.7358      1199.9919      260.06562      19.397672    
  12855000   306.92572     -3659.1717      1242.5064      327.99654      18.473638    
  12860000   296.20462     -3672.6561      1201.5438      177.67682     -7.6071764    
  12865000   302.32374     -3674.105       1203.1535      232.55744     -21.204987    
  12870000   300.38869     -3675.9328      1261.9784      272.25052     -12.783938    
  12875000   298.77224     -3716.1847      1261.5234      217.08859      11.061701    
  12880000   300.02404     -3702.8043      1186.9393      167.07898      3.0909466    
  12885000   297.98863     -3723.1168      1264.3971      206.02273      14.147327    
  12890000   297.78846     -3722.8701      1198.2085      138.29089      13.0055      
  12895000   298.97134     -3701.9321      1202.5106      174.10885      3.8512742    
  12900000   308.20743     -3688.1472      1202.5455      270.52171      1.754133     
  12905000   298.13238     -3699.7037      1194.0882      160.41248     -16.550927    
  12910000   298.19002     -3670.7406      1210.5889      206.39173      10.868751    
  12915000   303.35084     -3694.5716      1254.23        272.35206     -2.1777221    
  12920000   299.213       -3739.0024      1173.6213      110.3103      -4.0335305    
  12925000   295.90378     -3736.803       1179.1269      88.422805     -18.502489    
  12930000   297.50046     -3733.6799      1256.8979      183.59518      10.061049    
  12935000   296.0451      -3707.4673      1231.9499      171.84525     -22.06786     
  12940000   294.59538     -3735.5644      1221.3437      120.17792     -18.018887    
  12945000   299.79763     -3731.9815      1264.124       213.06187      21.996755    
  12950000   291.79653     -3730.2453      1216.3209      95.445695     -1.9413983    
  12955000   296.76316     -3734.9153      1246.4445      165.31304     -17.057554    
  12960000   297.4083      -3746.3016      1222.2524      135.50368      0.27971139   
  12965000   305.47479     -3717.1591      1210.7385      225.2664      -5.6089768    
  12970000   306.49866     -3758.9306      1198.6172      180.52951     -11.572752    
  12975000   300.7275      -3758.8017      1195.1265      125.55948     -7.8609747    
  12980000   294.81605     -3773.4824      1215.6716      78.561175      1.1571982    
  12985000   308.92165     -3778.3003      1244.9652      229.17519      19.076718    
  12990000   311.56199     -3758.8314      1220.0084      247.29836      4.3234049    
  12995000   303.07072     -3737.4681      1207.254       179.97461     -1.3603598    
  13000000   298.70314     -3769.7408      1216.2818      117.67298      24.464213    
  13005000   294.50827     -3745.1185      1240.8372      129.33835      19.38505     
  13010000   302.098       -3720.4225      1211.2079      192.27565      16.937991    
  13015000   300.77807     -3740.6852      1158.0479      107.04958      16.258163    
  13020000   298.94513     -3758.6832      1245.83        160.4427       14.048753    
  13025000   301.30827     -3742.643       1200.7424      152.52751      12.509232    
  13030000   297.65339     -3757.7354      1256.2162      160.22545     -27.441016    
  13035000   302.61095     -3750.2409      1177.9525      133.78887     -5.7935222    
  13040000   298.84754     -3769.5589      1266.3319      169.19627      12.853839    
  13045000   295.88231     -3761.6602      1223.2251      107.47183     -11.447493    
  13050000   288.63425     -3730.3303      1200.6083      51.369581     -23.064579    
  13055000   295.63301     -3747.8451      1278.7981      174.63056      13.412242    
  13060000   299.49417     -3738.4828      1187.6277      127.35055     -6.3158581    
  13065000   295.69417     -3767.4523      1241.489       118.26127      24.943812    
  13070000   310.30881     -3786.8333      1235.5507      223.63236      36.504646    
  13075000   293.68467     -3760.919       1205.1134      70.449036      9.5405898    
  13080000   299.04969     -3760.1165      1228.886       143.00045      12.684731    
  13085000   309.29445     -3747.0117      1215.1596      233.99194     -18.981122    
  13090000   307.89796     -3792.0686      1228.0809      189.36829     -12.255827    
  13095000   302.9355      -3784.3487      1215.2531      139.88394     -4.7450142    
  13100000   295.32541     -3747.3768      1206.2964      99.846524      12.996313    
  13105000   302.93201     -3793.0306      1218.3781      134.2959      -9.6437504    
  13110000   300.53904     -3764.976       1194.3989      116.97222      9.9477716    
  13115000   299.76531     -3769.9611      1208.4706      119.13987     -7.5459489    
  13120000   302.19655     -3798.3557      1230.6264      134.64217     -0.21551429   
  13125000   295.76792     -3802.8105      1240.1646      82.237988      8.1677308    
  13130000   308.05263     -3794.8977      1244.417       204.25844     -8.3981055    
  13135000   304.75351     -3784.5384      1161.3394      102.03794     -7.13327      
  13140000   304.96772     -3769.5878      1200.284       157.84871      10.551204    
  13145000   302.89163     -3768.7266      1159.3677      99.228344      24.530254    
  13150000   302.11223     -3792.8296      1211.7177      120.50558      6.7918208    
  13155000   301.03952     -3799.7376      1209.4571      101.74448      7.7542995    
  13160000   298.5227      -3773.5578      1200.1537      96.114259     -14.197744    
  13165000   299.18607     -3814.1686      1237.5197      98.801684      9.1331782    
  13170000   299.36433     -3775.8564      1245.302       146.4902      -19.713947    
  13175000   303.29637     -3785.5075      1218.8059      145.50495     -13.052181    
  13180000   302.70718     -3787.3302      1221.4215      141.02902      8.3857996    
  13185000   294.76421     -3787.2893      1184.9136      33.53271      -17.933485    
  13190000   300.50837     -3750.1621      1204.7352      141.84818      8.6215724    
  13195000   298.18642     -3811.3697      1228.105       83.246518     -0.6343186    
  13200000   298.25609     -3792.9843      1198.5041      72.654045     -16.781925    
  13205000   290.70913     -3763.2156      1191.2193      27.649832     -12.54137     
  13210000   296.9901      -3783.9596      1219.0134      90.866978     -27.454984    
  13215000   301.75245     -3784.1982      1219.3727      133.57473     -17.448313    
  13220000   296.06355     -3777.2245      1201.8307      72.133778      7.0817442    
  13225000   295.13664     -3778.9871      1169.6729      29.924562      24.433501    
  13230000   299.7188      -3785.9755      1240.635       134.87383      1.4409737    
  13235000   303.29982     -3779.8585      1224.4137      156.79268     -11.964862    
  13240000   294.33883     -3791.5312      1178.0417      18.614875      19.099317    
  13245000   297.76753     -3777.5725      1216.0895      101.28238      0.40368719   
  13250000   300.80805     -3766.2335      1242.1623      165.88379      20.037299    
  13255000   301.28315     -3760.5031      1218.0999      151.80034      8.0248091    
  13260000   301.3417      -3795.6885      1224.4993      123.53801     -3.6044403    
  13265000   294.92357     -3807.9983      1199.5451      28.880188      9.7528661    
  13270000   304.35815     -3810.7845      1191.4362      102.35318     -5.6114303    
  13275000   305.19642     -3800.8248      1210.5553      138.92817      9.8705492    
  13280000   304.90138     -3816.6364      1233.563       143.48592     -18.825881    
  13285000   298.43788     -3821.7659      1215.6083      62.602296     -21.268189    
  13290000   302.21925     -3830.9553      1160.5446      32.163813      7.041631     
  13295000   307.86128     -3813.7444      1189.6222      128.90582      2.0545825    
  13300000   309.27031     -3822.9803      1177.8255      120.47331      13.415511    
  13305000   300.7496      -3822.5303      1205.5602      72.46222       5.9972949    
  13310000   308.36835     -3827.2792      1224.4116      154.69479      18.585774    
  13315000   298.33246     -3822.8283      1209.749       54.73782       6.4402384    
  13320000   295.47299     -3812.9284      1178.8035      8.1216862     -14.102129    
  13325000   300.9694      -3822.2099      1224.8929      94.080886     -18.915001    
  13330000   302.76284     -3864.2314      1232.0592      75.263273      20.506259    
  13335000   296.08977     -3857.1575      1206.6024     -2.7930773     -24.769361    
  13340000   300.33103     -3859.0371      1214.9691      41.621241      29.139487    
  13345000   312.45245     -3827.4856      1177.6726      144.27119     -19.9171      
  13350000   306.56459     -3814.6523      1246.75        173.53023      14.188893    
  13355000   299.60501     -3788.545       1172.6206      63.272507     -15.949438    
  13360000   304.93261     -3813.6563      1175.8562      89.038442      29.395317    
  13365000   306.55564     -3820.1761      1213.501       134.67722      9.9060041    
  13370000   309.01162     -3816.2333      1189.7405      136.82204      2.6792684    
  13375000   300.01552     -3813.6609      1188.7936      58.000617      5.1429458    
  13380000   299.39593     -3826.2205      1189.7691      40.875885      6.5702328    
  13385000   305.09257     -3797.2605      1164.729       95.73748      -1.6184952    
  13390000   298.3095      -3807.4346      1192.2784      52.45575       9.7346542    
  13395000   299.6742      -3817.0186      1207.031       69.827993     -2.1825063    
  13400000   299.76715     -3809.1369      1252.7667      124.27653      5.0895054    
  13405000   294.70699     -3833.8221      1270.6655      72.240127     -22.846451    
  13410000   289.51407     -3816.2613      1213.6224     -13.679505     -7.7010789    
  13415000   302.32168     -3813.7935      1189.1574      78.85445       2.6784128    
  13420000   296.87299     -3825.151       1251.8643      81.479318      3.3031657    
  13425000   297.23853     -3792.8803      1146.2603      11.414804     -18.923472    
  13430000   298.77237     -3823.7125      1238.7963      86.834821      16.207727    
  13435000   295.03996     -3785.4823      1164.2644      17.156276     -0.32607655   
  13440000   294.03796     -3799.2854      1194.0911      24.219649      1.0118217    
  13445000   297.85605     -3800.802       1198.0841      60.83905      -4.6311304    
  13450000   302.67708     -3808.5588      1171.024       69.133842      10.837842    
  13455000   307.25015     -3779.2933      1181.4031      149.67276      6.805686     
  13460000   299.9886      -3807.0918      1224.211       99.746319      16.147775    
  13465000   297.1399      -3823.6888      1194.4693      27.933316     -1.6069889    
  13470000   296.79575     -3787.0085      1252.8163      119.88311     -7.0379283    
  13475000   295.09932     -3825.858       1195.4172      8.4643011      9.807049     
  13480000   300.36961     -3806.7213      1187.1379      66.450814      32.310955    
  13485000   300.46143     -3763.9239      1174.5438      97.475345     -10.222811    
  13490000   297.69495     -3758.1054      1219.0511      123.062        1.1529064    
  13495000   298.24396     -3750.0534      1210.0068      126.97919      21.698142    
  13500000   295.90201     -3756.9418      1213.2522      102.39348      8.9783386    
  13505000   305.93266     -3783.3035      1180.021       132.49892     -2.8947107    
  13510000   291.12779     -3762.393       1216.9471      57.943998      20.776845    
  13515000   298.10432     -3775.7661      1230.1818      120.1928       20.806626    
  13520000   297.5297      -3771.6912      1208.2041      97.151441     -8.7899268    
  13525000   299.46463     -3786.7894      1192.9051      84.057244      8.6049122    
  13530000   298.60136     -3794.5587      1183.2169      58.880006      10.284432    
  13535000   303.65504     -3756.7518      1202.9389      161.60105      38.552677    
  13540000   294.99198     -3752.2554      1239.6481      125.33785     -3.650972     
  13545000   298.02411     -3737.6696      1229.9334      157.3236       5.0923651    
  13550000   298.91036     -3763.5249      1189.9417      99.401803      27.683653    
  13555000   297.88863     -3780.6898      1182.3137      65.472178      11.578789    
  13560000   296.54315     -3769.7288      1221.3988      103.48639     -6.8556019    
  13565000   297.64699     -3814.676       1190.3519      37.363361      25.315915    
  13570000   297.09665     -3779.5988      1176.3326      53.499839      19.926147    
  13575000   303.52337     -3792.4341      1186.6345      108.43688      12.603509    
  13580000   298.9716      -3799.5206      1187.3804      61.392456      4.7834715    
  13585000   301.39681     -3796.9199      1162.0431      60.343192     -3.1902517    
  13590000   290.81626     -3835.6648      1256.1123      21.051644      9.5162793    
  13595000   294.86738     -3795.5839      1180.0789      21.325952     -2.0266331    
  13600000   297.84004     -3817.3885      1198.2675      44.292738      2.5016262    
  13605000   298.0263      -3782.5581      1184.448       66.96931      -4.6815613    
  13610000   295.65056     -3766.9471      1158.4835      35.370854     -11.5015      
  13615000   300.15816     -3772.5095      1195.7067      107.34056      19.010373    
  13620000   312.23629     -3776.1655      1219.9997      235.9854      -19.679749    
  13625000   302.34211     -3788.7411      1233.6307      148.56278     -17.137292    
  13630000   302.9088      -3788.5061      1191.5796      111.81435      32.561274    
  13635000   299.81909     -3777.3771      1213.6446      117.3788      -9.2507299    
  13640000   299.73686     -3780.0182      1202.4637      102.82141     -14.122262    
  13645000   304.33461     -3782.0716      1181.1868      120.60625      3.4803041    
  13650000   305.01846     -3798.1823      1220.6823      150.10629      3.0264724    
  13655000   301.03957     -3805.4007      1225.2462      111.87082      26.012452    
  13660000   295.7552      -3808.1573      1152.4144     -10.972721      15.854377    
  13665000   295.39433     -3776.4275      1241.0651      106.18072      28.491544    
  13670000   295.32504     -3805.9914      1239.4752      74.407289      6.3959956    
  13675000   302.57651     -3794.9712      1215.6412      126.43925     -9.3176515    
  13680000   303.98005     -3777.148       1234.6419      175.81425     -26.780362    
  13685000   303.84847     -3812.0856      1186.7467      91.804871      6.9744724    
  13690000   307.4861      -3814.6743      1204.2916      139.29024     -6.5838634    
  13695000   299.83015     -3811.1241      1226.3384      96.424434      26.84417     
  13700000   299.49241     -3775.4714      1227.1308      129.84938     -12.386901    
  13705000   299.06619     -3786.2688      1215.9884      104.09814     -22.906008    
  13710000   304.57441     -3804.4889      1194.9542      114.10062      10.609145    
  13715000   301.60198     -3824.6892      1215.0609      87.426363     -43.958803    
  13720000   293.25594     -3804.5129      1200.0528      17.960676      5.7218082    
  13725000   304.32846     -3805.1112      1211.9602      128.28504      3.8563582    
  13730000   300.75373     -3786.5119      1198.0049      100.96229     -8.3266286    
  13735000   301.4612      -3776.6394      1173.8118      92.968113      27.608548    
  13740000   303.24267     -3750.7713      1176.3503      137.30534      12.633324    
  13745000   298.5768      -3771.4971      1234.9152      133.4203      -24.119872    
  13750000   301.31923     -3762.0952      1191.6483      124.07927      1.3869055    
  13755000   294.47412     -3779.7419      1200.2793      53.851714      9.3562489    
  13760000   300.60437     -3783.4232      1167.5711      72.281491      16.554327    
  13765000   292.84022     -3753.6512      1190.4746      55.526542      15.234004    
  13770000   305.54586     -3776.7313      1171.967       127.5582       12.45427     
  13775000   302.93641     -3756.7701      1198.8786      151.09618      12.486647    
  13780000   296.75322     -3730.4054      1240.6243      163.91383      5.2547608    
  13785000   302.33223     -3737.2404      1234.0923      200.43675      3.7117358    
  13790000   297.69168     -3740.5662      1204.2474      125.76825     -0.1271715    
  13795000   295.99088     -3758.2029      1229.789       118.46386      36.523011    
  13800000   291.45359     -3745.3154      1175.3185      36.306422      3.5700707    
  13805000   293.91153     -3740.4082      1217.8831      105.75815      17.39607     
  13810000   289.74494     -3731.9633      1212.9986      72.059131     -16.102758    
  13815000   302.45077     -3721.0816      1227.7086      211.27187      7.3158224    
  13820000   302.81983     -3772.1781      1182.9143      118.68138      15.64421     
  13825000   296.30644     -3759.5174      1213.4365      103.61884      38.545773    
  13830000   298.94836     -3759.9469      1250.1881      163.566        5.0402854    
  13835000   300.23764     -3767.2296      1227.8259      145.45037      17.666196    
  13840000   292.66232     -3795.7289      1167.5227     -11.093843      15.06465     
  13845000   306.64419     -3749.6711      1220.3728      212.84585      7.3960818    
  13850000   290.73948     -3753.6031      1201.2252      47.539574     -14.460874    
  13855000   305.47506     -3766.5255      1177.8417      143.00558      4.5929406    
  13860000   301.72518     -3763.5761      1171.9223      106.50256     -29.995848    
  13865000   298.34518     -3737.0494      1236.3638      167.24527     -10.443786    
  13870000   303.75839     -3766.0079      1253.6273      203.95757      14.540365    
  13875000   295.59223     -3747.3929      1181.7766      77.696527      10.544856    
  13880000   297.84643     -3755.7952      1180.1446      87.820367      34.736068    
  13885000   304.46367     -3743.9007      1243.3282      222.07259     -33.607314    
  13890000   304.92664     -3731.1485      1186.2678      181.90447      26.939325    
  13895000   304.48918     -3745.0167      1211.4427      189.29926     -11.778516    
  13900000   298.20432     -3736.96        1161.794       91.505244     -16.413398    
  13905000   295.99996     -3730.6778      1184.5972      100.87833      5.9421936    
  13910000   301.16397     -3733.3518      1182.4818      142.26774      8.2269663    
  13915000   300.90251     -3737.8692      1232.7582      185.68872      2.2293161    
  13920000   292.90654     -3707.5432      1224.7202      136.47334     -9.7515198    
  13925000   298.48905     -3718.3164      1210.3836      161.28472      20.757975    
  13930000   293.99105     -3705.0483      1200.2352      124.18132     -13.047274    
  13935000   301.65596     -3708.449       1276.3454      265.43375     -15.947085    
  13940000   304.48344     -3738.7603      1244.6826      228.74411      18.644008    
  13945000   290.98872     -3718.7058      1211.0184      94.458929      20.648421    
  13950000   294.99122     -3696.3673      1202.121       143.69202      2.7137637    
  13955000   302.43463     -3705.729       1206.0697      204.84131     -33.824056    
  13960000   305.46044     -3688.8319      1154.3856      197.11244      29.753583    
  13965000   295.58736     -3741.0969      1190.5053      92.677735      6.2924603    
  13970000   293.90056     -3711.7245      1181.504       97.964684      32.773112    
  13975000   301.89538     -3732.1711      1243.8658      211.37306      5.2944832    
  13980000   297.53913     -3686.8961      1235.5741      209.40086     -14.953354    
  13985000   303.38454     -3715.8328      1208.5401      205.70239     -0.84355529   
  13990000   310.24412     -3715.2744      1246.1409      305.20286      3.5440555    
  13995000   298.82573     -3715.163       1212.4993      169.56458     -3.7670236    
  14000000   294.03054     -3699.0434      1228.0913      158.39547      0.22755683   
  14005000   305.49963     -3709.4051      1234.7777      257.28159      10.756348    
  14010000   307.51463     -3717.9254      1189.8079      221.81067      26.728056    
  14015000   308.34345     -3688.3651      1252.6769      321.65164     -8.3224281    
  14020000   303.76496     -3725.705       1231.3537      222.04566      4.2776163    
  14025000   294.54757     -3709.5661      1200.6688      125.07377      0.64858778   
  14030000   303.30665     -3679.5409      1213.1003      245.85794     -6.2905754    
  14035000   303.41755     -3697.3222      1280.9202      296.88819     -25.568257    
  14040000   298.06252     -3732.5475      1186.1635      119.01928      28.381632    
  14045000   303.85861     -3711.5171      1287.8606      293.57788     -0.91833776   
  14050000   303.39261     -3710.3384      1200.2014      202.93019      9.4578332    
  14055000   295.9398      -3706.5396      1226.76        166.64142      8.4058385    
  14060000   294.33133     -3701.4466      1203.2209      133.81161     -8.6627439    
  14065000   300.9259      -3689.4787      1194.4665      195.99665      19.411862    
  14070000   295.99963     -3702.3726      1219.0674      163.65079      0.60807438   
  14075000   298.66082     -3695.6832      1178.859       153.92931      2.0096526    
  14080000   304.63508     -3675.9342      1223.0423      271.28606      9.442438     
  14085000   302.09108     -3680.1248      1214.4596      235.76322      3.8873487    
  14090000   301.13838     -3680.8072      1193.4715      205.57316      10.669204    
  14095000   301.97074     -3706.6057      1219.0752      212.82173      6.3720026    
  14100000   300.51789     -3693.6151      1256.7806      250.52572      12.460312    
  14105000   295.09051     -3707.6076      1253.6244      184.84308      10.46921     
  14110000   299.15954     -3702.3849      1179.4478      152.27624      22.11343     
  14115000   301.20369     -3723.7881      1187.4466      157.15144      3.87438      
  14120000   306.62225     -3710.9356      1212.5602      243.57261     -18.97582     
  14125000   305.58156     -3692.4594      1205.3774      245.55968      1.5715919    
  14130000   307.45036     -3688.1514      1225.4259      286.62792      0.016452376  
  14135000   301.27262     -3706.9215      1243.1671      230.35491     -11.727066    
  14140000   303.37365     -3676.6048      1200.0135      236.30632     -2.926077     
  14145000   293.76657     -3676.8523      1244.1308      194.26551     -14.898791    
  14150000   302.52719     -3686.0179      1216.7396      236.04999      19.785856    
  14155000   303.269       -3697.1851      1210.1463      224.92307      2.9881871    
  14160000   299.72598     -3712.8179      1218.0487      185.50941      17.746821    
  14165000   293.63364     -3756.4225      1173.608       42.983835      17.988512    
  14170000   301.66726     -3729.0952      1189.9106      158.45386      17.344371    
  14175000   301.83913     -3715.688       1167.7569      151.24428     -1.7039165    
  14180000   294.8125      -3710.3175      1255.9288      181.95151      3.0049288    
  14185000   296.05903     -3735.6173      1211.7057      123.57551      13.971889    
  14190000   300.10384     -3709.7854      1155.5764      129.44868     -18.167365    
  14195000   297.99123     -3735.6617      1247.8975      177.00154      5.2572272    
  14200000   298.45143     -3727.6253      1194.4519      135.70763     -30.005775    
  14205000   297.65314     -3732.1277      1226.4841      156.09887      20.202208    
  14210000   290.25749     -3731.7563      1246.2004      110.05139     -0.39260396   
  14215000   300.0511      -3723.1491      1224.88        184.91694     -10.338134    
  14220000   300.83616     -3739.5874      1231.1207      181.7397      -18.652981    
  14225000   306.50432     -3725.6568      1278.9707      294.20732     -12.126002    
  14230000   299.90283     -3722.7163      1223.553       182.69685      20.336392    
  14235000   307.77278     -3716.9855      1268.0852      303.33624      0.27166994   
  14240000   306.47293     -3723.9271      1218.2495      234.9351       0.41573421   
  14245000   308.7612      -3718.9649      1199.0136      241.12415      13.532492    
  14250000   295.61352     -3729.4531      1226.7936      140.84368     -36.776788    
  14255000   299.04677     -3704.7296      1199.4186      168.89397      7.9373169    
  14260000   302.57502     -3726.2911      1189.63        169.09483      31.71367     
  14265000   307.34915     -3741.8144      1255.9001      262.53394      0.50176153   
  14270000   301.79109     -3706.881       1234.8327      226.69749     -15.914237    
  14275000   303.2146      -3705.7564      1218.9975      224.71645     -23.244549    
  14280000   303.94974     -3753.7183      1213.964       178.29498     -0.19992056   
  14285000   300.44081     -3748.9099      1245.9766      183.7377      -3.8839917    
  14290000   306.71264     -3738.8621      1265.3721      269.26632     -4.4688576    
  14295000   292.31968     -3737.3882      1209.4224      86.08254       8.8566138    
  14300000   297.19535     -3746.514       1212.4015      123.53611      42.043762    
  14305000   311.05994     -3727.0709      1279.1105      333.67138      19.07179     
  14310000   299.2881      -3719.0652      1186.7803      144.07801      0.80959625   
  14315000   299.47674     -3712.0436      1175.6667      141.67294     -7.6771065    
  14320000   298.55072     -3705.6561      1232.0037      196.11659     -15.80482     
  14325000   305.29213     -3720.0987      1199.8893      209.84417     -2.85878      
  14330000   291.07768     -3725.0535      1242.8246      120.7129       14.900655    
  14335000   302.53625     -3723.6962      1209.6451      191.35821     -15.444763    
  14340000   298.01222     -3724.9997      1241.1236      181.07738      21.386099    
  14345000   307.04549     -3733.1253      1247.4856      260.09314      1.8967614    
  14350000   306.89976     -3709.5932      1178.833       213.66949      22.197903    
  14355000   296.01379     -3717.5044      1214.9213      144.49961      19.603357    
  14360000   295.31021     -3743.3012      1200.7818      98.271485     -2.4852271    
  14365000   299.55995     -3705.9233      1250.1592      223.02983     -2.2458329    
  14370000   300.27553     -3685.2158      1196.6529      196.63007     -12.805386    
  14375000   295.25132     -3650.7198      1217.7356      207.28         2.9776558    
  14380000   299.65325     -3725.0121      1221.8415      176.45773      14.53088     
  14385000   292.71771     -3661.8348      1226.1493      181.92214      9.4471427    
  14390000   301.02424     -3686.5254      1199.4106      204.7735      -18.698034    
  14395000   301.70148     -3673.9373      1189.4062      213.41326     -6.2547835    
  14400000   299.27382     -3679.4228      1267.2866      264.09901     -4.7234522    
  14405000   296.76909     -3712.4338      1211.0448      152.4478       11.942642    
  14410000   296.64246     -3705.9228      1236.4849      183.26665     -2.5133607    
  14415000   301.93711     -3656.0176      1199.3382      243.37216     -10.694343    
  14420000   301.24096     -3643.2353      1189.514       240.10495      19.498388    
  14425000   299.45601     -3688.7834      1254.0295      243.11052     -7.9255813    
  14430000   305.06003     -3671.4109      1192.6669      249.2339      -22.349436    
  14435000   307.6774      -3690.43        1221.3859      282.33949      22.030992    
  14440000   306.23244     -3666.2819      1230.9968      303.17714      23.526393    
  14445000   299.68923     -3675.7129      1195.7702      200.00728     -15.86258     
  14450000   305.68051     -3683.7778      1241.5738      291.32264      7.9540665    
  14455000   301.02629     -3715.0405      1211.5963      188.46231      12.899133    
  14460000   300.56213     -3681.3342      1220.5435      226.96514      8.7624576    
  14465000   296.43619     -3707.4848      1203.37        146.74518     -2.3772069    
  14470000   297.87144     -3671.8219      1184.0992      175.97178     -24.396545    
  14475000   303.87804     -3653.6422      1186.7778      250.54373      1.9953721    
  14480000   300.92752     -3683.5034      1176.1116      183.63158      12.135567    
  14485000   301.33412     -3675.118       1202.3137      221.85506      24.047646    
  14490000   290.97356     -3694.6625      1241.7234      149.07156      0.065775906  
  14495000   303.49739     -3684.169       1185.3495      215.18475     -8.5449944    
  14500000   302.82099     -3694.0387      1220.6214      234.53822     -12.005336    
  14505000   302.47815     -3700.1162      1234.1454      238.919        19.438795    
  14510000   296.83672     -3685.571       1242.9283      211.79899     -8.1494739    
  14515000   307.36789     -3675.1525      1227.7992      301.26256      17.880549    
  14520000   301.80354     -3679.95        1233.4935      252.40053      20.153796    
  14525000   294.77182     -3673.321       1224.4408      187.09614     -4.1891132    
  14530000   306.10248     -3691.9133      1266.8671      312.25384     -3.2988799    
  14535000   300.80024     -3712.9978      1219.759       196.64628     -33.662023    
  14540000   300.65545     -3666.1091      1170.643       193.12418     -1.0605248    
  14545000   302.80133     -3695.641       1224.7183      236.85701      3.0935619    
  14550000   297.55587     -3693.3112      1174.0823      141.64369      38.206487    
  14555000   301.67735     -3699.9249      1219.5595      217.36314     -4.829499     
  14560000   304.96987     -3692.968       1214.8368      249.04062      32.86667     
  14565000   304.82631     -3722.9845      1189.8755      192.7789       13.756405    
  14570000   298.91196     -3724.2055      1173.9256      122.71945      10.410742    
  14575000   288.5317      -3734.8703      1214.5359      59.84017      -2.3438301    
  14580000   300.17991     -3717.2188      1238.2726      205.39168     -11.203277    
  14585000   300.79077     -3762.0343      1205.2752      133.04135      6.9600766    
  14590000   302.88553     -3745.6464      1193.024       155.91032     -36.268811    
  14595000   303.12578     -3744.8269      1203.3268      169.18102      1.6645595    
  14600000   300.06533     -3742.8083      1211.6562      152.16117     -14.114608    
  14605000   301.43989     -3734.2179      1217.3566      178.74381      7.6070819    
  14610000   298.04156     -3762.8623      1243.921       146.27449      21.024141    
  14615000   299.432       -3727.5786      1161.4841      111.55525      0.36565974   
  14620000   298.16332     -3717.6606      1237.6972      186.3412       3.3607702    
  14625000   297.39387     -3736.4987      1194.8055      117.7307       14.065307    
  14630000   291.50821     -3748.5525      1231.8635      90.102745      5.9095296    
  14635000   298.65669     -3764.5869      1277.1948      183.32456      3.5996595    
  14640000   305.92277     -3734.2017      1197.7855      199.27682      6.1923852    
  14645000   299.71861     -3722.1944      1210.6631      168.68143     -14.004968    
  14650000   300.05486     -3771.3175      1243.4577      155.35983     -1.5884879    
  14655000   300.84747     -3726.925       1242.7335      206.11591      4.3412964    
  14660000   301.67054     -3732.2586      1164.0493      129.45844     -16.246758    
  14665000   301.43017     -3733.8676      1183.502       145.15273     -11.429411    
  14670000   291.41702     -3724.1767      1224.2603      106.06001      12.483735    
  14675000   299.85217     -3746.3227      1216.3926      151.47704     -4.7888218    
  14680000   307.13578     -3736.3688      1185.2447      195.41614     -2.728994     
  14685000   296.41567     -3741.0092      1220.7591      130.42645     -12.679461    
  14690000   296.75486     -3728.2174      1243.0944      168.58664      12.816132    
  14695000   302.4514      -3689.1735      1238.1973      253.67438     -23.341443    
  14700000   302.44141     -3704.8447      1203.313       203.02951      5.1324201    
  14705000   296.14759     -3716.0075      1219.0649      151.33657      8.0819599    
  14710000   300.625       -3712.3868      1208.9764      184.90767      25.091227    
  14715000   306.32684     -3703.0975      1180.6463      216.85517     -17.962271    
  14720000   304.31793     -3700.7623      1183.208       203.78753     -2.7662293    
  14725000   307.9758      -3683.2087      1220.7747      291.61809      19.099176    
  14730000   294.88876     -3717.6486      1161.1487      80.52223      -8.5365477    
  14735000   297.8072      -3709.6429      1233.954       187.43118      5.2167628    
  14740000   295.20156     -3689.1055      1221.1216      171.83538      5.8230345    
  14745000   301.53026     -3687.5012      1163.5432      172.45528     -37.607979    
  14750000   303.85214     -3694.6995      1201.1355      223.61258     -18.078912    
  14755000   303.80485     -3708.8998      1177.4923      185.34607      20.111548    
  14760000   305.23974     -3674.5531      1215.5366      270.56862      4.4899566    
  14765000   293.28417     -3691.4072      1155.416       86.68197       11.599427    
  14770000   298.34098     -3692.4092      1154.3183      129.8025      -1.558595     
  14775000   296.57298     -3686.6367      1214.6196      180.06603      16.73205     
  14780000   299.86915     -3691.1136      1194.8192      185.26441      11.729007    
  14785000   297.01669     -3695.2674      1153.4193      114.20295      21.940767    
  14790000   295.0578      -3669.3219      1217.0793      186.29126      5.1788875    
  14795000   300.69109     -3683.2401      1219.4142      225.0832       15.713494    
  14800000   303.85553     -3697.6762      1258.7659      278.29651     -3.8019666    
  14805000   298.08146     -3712.5739      1251.5266      204.52535     -27.655319    
  14810000   302.2552      -3687.58        1209.669       224.98491      6.668232     
  14815000   292.94804     -3664.5972      1186.4264      141.49653     -12.189545    
  14820000   295.37634     -3717.376       1208.5731      132.57947      9.0304923    
  14825000   310.76049     -3702.1169      1208.5425      285.37953      30.849229    
  14830000   299.94056     -3682.8608      1190.8964      190.23307     -14.304088    
  14835000   305.59166     -3704.4004      1268.6811      297.01276      37.72504     
  14840000   296.41787     -3708.9107      1167.9183      109.70371     -8.6167695    
  14845000   306.70496     -3711.1049      1234.5519      266.13476      8.1351969    
  14850000   299.90361     -3685.4627      1195.2511      191.65548     -0.073722427  
  14855000   309.76566     -3680.9379      1203.6275      292.7473       11.828081    
  14860000   298.89508     -3702.921       1216.3233      186.25067     -1.8143196    
  14865000   297.85277     -3717.8718      1165.6829      111.33866      4.131463     
  14870000   292.00062     -3732.4403      1219.9747      98.729566      17.698757    
  14875000   300.9183      -3718.1484      1209.7501      182.54259      6.1051869    
  14880000   303.265       -3691.2815      1193.253       213.89754     -18.723208    
  14885000   301.34059     -3725.1954      1209.9457      179.46741     -16.336137    
  14890000   303.56106     -3732.0717      1237.8843      220.38623      14.238532    
  14895000   303.23906     -3715.3606      1222.5486      218.88205      20.498194    
  14900000   298.53247     -3718.4932      1181.9805      133.09308     -5.6577332    
  14905000   297.98367     -3762.8336      1256.1381      158.00267     -12.721486    
  14910000   300.19254     -3748.761       1185.7278      121.41761     -0.75582075   
  14915000   299.58142     -3740.6769      1208.6944      147.00344      37.201661    
  14920000   308.25381     -3763.1997      1205.7122      199.05057      0.84876487   
  14925000   300.27927     -3746.6329      1190.4532      129.04676     -4.7038878    
  14930000   298.59792     -3764.5235      1176.1647      81.832234      1.8226732    
  14935000   299.3754      -3746.2301      1177.7942      108.70775      28.062832    
  14940000   307.33685     -3772.0702      1185.8767      162.14469      10.815185    
  14945000   300.46823     -3776.7295      1208.2117      118.39838     -20.803823    
  14950000   299.52827     -3761.1603      1211.0584      128.40877     -3.5511996    
  14955000   299.9411      -3790.9902      1218.784       109.99614      5.8540308    
  14960000   293.69381     -3750.3895      1221.9213      97.868152     -13.046815    
  14965000   309.0006      -3768.6518      1241.7484      236.31293      3.7515809    
  14970000   301.37037     -3786.1794      1184.8185      93.622605      41.227041    
  14975000   295.82378     -3779.8556      1224.8508      90.378676      35.160635    
  14980000   300.86868     -3771.7414      1192.6496      111.4054       1.3603053    
  14985000   300.42608     -3773.4518      1240.5329      153.6203       2.2485473    
  14990000   303.67522     -3771.6433      1190.7217      134.67283      17.746265    
  14995000   290.9185      -3773.1665      1197.3997      25.751599      20.335441    
  15000000   297.83993     -3800.2825      1168.7121      31.842349      7.6282431    
  15005000   296.74974     -3787.7355      1210.8023      76.730645     -15.903363    
  15010000   294.96619     -3750.1768      1214.6043      102.1421       10.167211    
  15015000   299.66003     -3774.6337      1190.16        95.215179      9.2053589    
  15020000   302.77291     -3777.5499      1218.7453      148.72094      0.81185909   
  15025000   297.2984      -3758.7453      1218.8491      118.674        4.6691702    
  15030000   299.75434     -3772.2504      1224.9873      133.26914     -6.6445722    
  15035000   305.50297     -3804.2677      1237.1015      164.77276      15.431195    
  15040000   304.5082      -3785.47        1224.5157      162.08905     -24.685669    
  15045000   300.86384     -3776.3471      1208.3656      122.47234     -0.71701698   
  15050000   299.79546     -3772.9435      1205.0968      113.05318      20.973785    
  15055000   307.11777     -3792.964       1239.6728      193.08797      6.6039074    
  15060000   295.25754     -3769.7287      1265.4728      136.06397      16.892074    
  15065000   301.92195     -3759.3736      1174.7883      115.33062     -2.7446753    
  15070000   304.38117     -3752.0124      1184.7395      154.63442      19.297228    
  15075000   294.93453     -3742.7841      1242.9742      137.62158      17.032355    
  15080000   304.78802     -3768.4569      1232.1368      189.22544      13.608159    
  15085000   291.45833     -3747.0748      1226.2359      85.506869      4.2403754    
  15090000   306.87649     -3742.2467      1223.0449      225.01979      2.906377     
  15095000   301.95218     -3755.4487      1246.4701      191.20771     -11.050276    
  15100000   297.82635     -3740.2818      1235.0103      158.01987      6.1207295    
  15105000   298.04196     -3709.0929      1217.4556      173.58211     -18.741919    
  15110000   295.57006     -3710.4434      1190.5087      123.17985      7.1869991    
  15115000   299.83789     -3690.2579      1161.0598      152.08132     -0.34497524   
  15120000   301.29289     -3684.6925      1168.406       178.00413     -21.239803    
  15125000   299.66408     -3731.8836      1189.1129      136.95443      23.94121     
  15130000   299.82022     -3716.7457      1213.5626      177.93821     -10.652987    
  15135000   295.70237     -3690.9837      1191.3444      144.65839      11.20119     
  15140000   308.92384     -3719.691       1259.5172      302.35603      28.722296    
  15145000   294.64809     -3728.2205      1208.119       114.76849      23.399038    
  15150000   302.6019      -3720.0246      1265.88        251.85173      14.46228     
  15155000   295.73077     -3703.6152      1189.1589      130.09552      7.0384298    
  15160000   297.55504     -3726.0903      1195.6616      130.4364       29.047362    
  15165000   292.40721     -3711.9063      1182.9002      85.825025     -14.194165    
  15170000   293.37187     -3722.3061      1191.9229      93.074263      7.0605676    
  15175000   296.20448     -3692.5599      1222.4422      178.6702       2.5315043    
  15180000   303.06753     -3687.0752      1237.8809      260.96594      11.607717    
  15185000   299.21671     -3705.9473      1199.496       169.27315      0.43905319   
  15190000   304.25546     -3699.986       1251.1813      271.97844      15.093731    
  15195000   295.83859     -3708.5846      1200.2194      137.15079     -17.464494    
  15200000   295.35384     -3697.1701      1233.9354      177.94636     -12.631195    
  15205000   293.63465     -3710.3367      1204.7361      120.20673      14.370167    
  15210000   299.62058     -3707.1909      1222.4952      194.64046     -3.657457     
  15215000   299.56176     -3725.8043      1193.3685      146.37421      17.510015    
  15220000   302.84788     -3705.2122      1149.4874      152.47118      16.84555     
  15225000   289.20893     -3727.9633      1182.6662      40.933615      23.469576    
  15230000   297.94956     -3711.1056      1213.6438      166.93138      36.390328    
  15235000   297.99312     -3707.6292      1217.3771      174.53051     -15.35587     
  15240000   300.26853     -3723.2297      1233.8313      195.732       -0.037001164  
  15245000   301.46091     -3701.2444      1239.7473      234.29599      20.858008    
  15250000   295.56045     -3720.6493      1208.7234      131.1028      -1.3530594    
  15255000   298.83829     -3669.9941      1164.3628      166.70925     -1.0868698    
  15260000   297.3597      -3684.057       1214.0299      189.09117     -6.099599     
  15265000   300.58141     -3716.9272      1230.6126      201.61366      7.0570019    
  15270000   302.26449     -3734.5859      1231.5794      199.97263      18.076776    
  15275000   305.13136     -3738.2879      1227.7035      218.03141     -29.809608    
  15280000   301.55226     -3686.6508      1210.4014      220.36063     -5.3456197    
  15285000   300.13726     -3699.9108      1241.8601      225.90572      16.031684    
  15290000   306.64078     -3692.8039      1244.5818      293.89172     -8.1056324    
  15295000   306.37283     -3703.1119      1215.5919      252.19761      0.62099536   
  15300000   295.06832     -3709.9789      1227.0908      155.73971     -34.156581    
  15305000   299.01459     -3691.3778      1222.1428      204.68207      52.902823    
  15310000   304.28124     -3702.2526      1202.1117      220.87285      4.6506976    
  15315000   310.16386     -3705.0386      1207.3176      275.89768      9.9894909    
  15320000   304.95003     -3680.5418      1296.1737      342.62625     -4.726839     
  15325000   299.06967     -3690.4489      1182.2884      166.24905      3.0692456    
  15330000   296.70717     -3713.1483      1260.1537      200.2885       14.659395    
  15335000   288.58347     -3716.6965      1218.0533      81.99424       39.658127    
  15340000   299.29421     -3693.3796      1133.0061      116.04411     -2.8487954    
  15345000   299.40626     -3650.0359      1199.6441      227.02782      4.6604426    
  15350000   299.31063     -3680.6916      1211.6455      207.51834      3.0221953    
  15355000   295.49919     -3649.3446      1196.104       189.24024     -15.811882    
  15360000   299.19285     -3670.1836      1282.1569      287.48442     -7.4434356    
  15365000   300.13825     -3683.5266      1165.8479      166.28669      13.788481    
  15370000   298.26322     -3672.3793      1222.8952      217.7139      -41.327118    
  15375000   298.09381     -3708.3625      1193.2456      150.56626      1.3087319    
  15380000   295.2115      -3670.4417      1268.0598      237.52627      30.575376    
  15385000   303.28754     -3702.0585      1162.6952      172.76439     -6.8744577    
  15390000   301.71713     -3713.6128      1256.6127      241.0843      -0.79962329   
  15395000   301.876       -3720.4997      1209.8585      188.86394     -17.067967    
  15400000   296.915       -3724.7806      1187.1152      117.47631      22.034217    
  15405000   298.53524     -3709.8673      1206.4517      166.21484      5.7004327    
  15410000   296.45046     -3695.705       1194.1713      149.45384      4.664952     
  15415000   305.30482     -3721.2448      1231.3545      240.27676      7.9369883    
  15420000   304.30952     -3710.5125      1251.3343      262.08844      5.3886991    
  15425000   301.17583     -3703.8716      1188.2052      177.57742      19.844166    
  15430000   304.20107     -3711.5617      1181.3833      190.11847      30.833452    
  15435000   297.13578     -3707.9652      1248.0629      197.21368     -10.052352    
  15440000   294.70093     -3706.2593      1201.013       130.09619     -6.8547876    
  15445000   311.0824      -3703.3244      1201.3003      279.80856     -17.919966    
  15450000   288.79307     -3676.9283      1162.9827      68.566258      1.8233519    
  15455000   305.52885     -3713.0293      1198.7266      217.86764      6.6973093    
  15460000   291.17907     -3699.7479      1157.9989      62.099527     -10.418217    
  15465000   300.22327     -3707.502       1194.4074      171.63098      49.530102    
  15470000   306.1183      -3707.0003      1198.3065      228.74771      0.42696591   
  15475000   299.47483     -3712.5449      1166.6133      132.10105      18.569444    
  15480000   305.48734     -3741.0821      1211.1574      201.87446     -3.4997821    
  15485000   298.61372     -3732.2656      1249.1944      187.26111      28.432374    
  15490000   294.96863     -3715.7534      1179.623       101.606       -1.3718121    
  15495000   298.57697     -3707.3389      1268.9692      231.63402      27.537539    
  15500000   289.52063     -3731.6497      1189.6471      47.015411      20.838139    
  15505000   297.2946      -3725.8346      1250.6013      183.30285     -17.878539    
  15510000   301.38525     -3734.168       1204.3374      165.28599     -19.489767    
  15515000   302.0309      -3746.0807      1230.4899      185.29944      4.0916045    
  15520000   299.6992      -3770.1439      1164.6678      74.563078      18.826116    
  15525000   299.70182     -3748.4734      1213.4653      145.05449     -11.990984    
  15530000   305.4921      -3771.2131      1195.2615      155.89018     -19.605403    
  15535000   294.59213     -3751.9095      1210.0953      92.555355     -33.974257    
  15540000   295.80177     -3754.3244      1213.469       104.33121      17.633167    
  15545000   301.47974     -3784.3414      1204.1304      115.75047      16.406437    
  15550000   309.25002     -3783.5578      1241.6974      223.58625     -32.043253    
  15555000   299.10333     -3797.2298      1207.15        84.630788      34.802975    
  15560000   296.19542     -3808.8682      1201.8458      41.684399      29.789822    
  15565000   295.83419     -3757.1707      1241.8684      130.17439     -18.33692     
  15570000   303.2871      -3752.8065      1217.074       176.39122      12.536773    
  15575000   307.97767     -3767.1984      1193.265       180.1354       13.952606    
  15580000   307.92781     -3762.9648      1215.3488      206.00701      21.127314    
  15585000   301.26186     -3753.4265      1199.779       140.36565     -44.761602    
  15590000   299.54305     -3725.3731      1202.0847      155.35436      5.6436326    
  15595000   294.52718     -3734.4114      1190.8065      90.183832     -0.92207859   
  15600000   295.32252     -3739.9084      1234.1036      135.09617     -12.278425    
  15605000   300.50641     -3750.8099      1228.5546      165.00233     -13.777102    
  15610000   299.81015     -3728.489       1169.9892      122.53144      19.222552    
  15615000   303.37696     -3741.5095      1264.8573      236.27505     -2.9504542    
  15620000   311.11354     -3761.4043      1209.6544      230.36122      15.624223    
  15625000   297.64604     -3756.2402      1182.235       87.673649     -13.555954    
  15630000   298.87628     -3765.866       1179.3323      86.146489     -15.362136    
  15635000   298.02321     -3754.9181      1172.2618      82.395508      13.801648    
  15640000   294.35154     -3754.0443      1225.3643      103.53809     -11.73364     
  15645000   297.02931     -3744.2369      1164.4037      76.330554      8.2417966    
  15650000   303.73645     -3765.6043      1160.7673      111.305        9.3262481    
  15655000   298.36217     -3739.5516      1172.4757      101.00693     -6.9520389    
  15660000   293.14253     -3745.3206      1181.2708      57.356799      2.9895609    
  15665000   296.94031     -3758.6705      1236.0475      132.74495     -21.298732    
  15670000   299.67367     -3745.8263      1194.7805      128.765       -8.0535207    
  15675000   298.32655     -3711.7742      1267.2238      223.21397      10.817072    
  15680000   302.88852     -3768.8634      1186.554       126.24999      30.318276    
  15685000   305.19531     -3719.9662      1288.0753      297.29676     -3.9820427    
  15690000   301.623       -3746.2358      1198.3599      149.36673     -0.42488113   
  15695000   300.75814     -3728.0128      1212.624       174.11986     -4.7754677    
  15700000   298.2139      -3702.4721      1214.9097      179.19455     -6.579746     
  15705000   301.2982      -3673.3614      1192.2143      213.19105      9.5843431    
  15710000   295.59213     -3689.6541      1204.9146      158.57258      21.742514    
  15715000   298.2671      -3697.7486      1230.5879      200.07198     -14.632288    
  15720000   306.93686     -3656.7388      1204.569       292.59157     -4.0650027    
  15725000   297.95908     -3703.3922      1277.0294      238.11548      3.4819292    
  15730000   296.19437     -3686.3677      1179.6327      141.96246     -12.805452    
  15735000   302.1974      -3650.5803      1209.0916      260.89039     -1.0190325    
  15740000   297.36191     -3640.5638      1209.1599      227.7343       1.2803871    
  15745000   295.23203     -3685.8579      1203.4372      157.67112     -17.555582    
  15750000   302.81028     -3662.4451      1204.7608      250.17546     -13.53762     
  15755000   301.43452     -3651.1129      1244.3933      288.83757     -15.962774    
  15760000   300.27866     -3688.499       1217.2762      213.99817      0.42316234   
  15765000   294.97828     -3676.3083      1216.5061      178.02052      4.284927     
  15770000   300.01297     -3711.0351      1149.1037      120.91364      16.404709    
  15775000   291.28758     -3680.7058      1179.7247      103.83774     -6.2572298    
  15780000   304.53797     -3679.9492      1203.2783      246.6386       23.612517    
  15785000   290.79863     -3713.5396      1215.235       102.1418       23.306483    
  15790000   299.09529     -3684.3597      1227.0787      217.35772      22.385674    
  15795000   298.41309     -3704.8684      1267.5656      231.23535      17.98984     
  15800000   304.91764     -3718.4875      1198.1034      206.32058      6.6334492    
  15805000   292.67531     -3719.7469      1245.0328      142.51438     -5.770368     
  15810000   302.8641      -3737.772       1192.522       163.0911       13.056293    
  15815000   303.6367      -3719.7163      1172.1538      167.68751      2.1380112    
  15820000   302.30903     -3738.5158      1248.1113      212.97286     -2.3489563    
  15825000   303.59031     -3742.1703      1148.9313      121.59618      11.629058    
  15830000   295.82676     -3718.9603      1187.3015      113.75136     -28.481698    
  15835000   305.05297     -3706.7262      1210.8943      232.08294     -0.80405747   
  15840000   297.81251     -3736.1708      1240.5863      167.58304      24.212291    
  15845000   297.17387     -3724.2735      1184.0959      117.27904      4.5439368    
  15850000   303.62767     -3719.2489      1222.0593      217.97962      27.468311    
  15855000   298.45247     -3756.6715      1246.6755      158.89437      11.452022    
  15860000   301.1276      -3721.9126      1195.2746      166.17455     -13.311525    
  15865000   299.63973     -3738.8056      1172.7015      113.40323     -8.1735972    
  15870000   295.65492     -3741.736       1170.5427      72.680154     -8.6289163    
  15875000   306.65581     -3740.9127      1170.0028      171.33824      11.927616    
  15880000   300.83421     -3783.1546      1227.9316      134.96596     -35.707627    
  15885000   295.97748     -3748.3281      1233.9219      132.35181      21.57934     
  15890000   290.86071     -3750.2907      1238.9379      89.648795      30.860384    
  15895000   304.30848     -3757.2845      1175.2661      139.23906      9.9360973    
  15900000   300.99722     -3775.4246      1237.4845      153.70648     -0.32777217   
  15905000   304.54921     -3748.8151      1229.286       203.8809       11.382282    
  15910000   303.29168     -3768.0717      1203.9902      148.0831      -20.466582    
  15915000   300.14867     -3750.6159      1189.1195      122.56215     -2.1572083    
  15920000   305.20106     -3782.0453      1199.1276      146.32139      3.1999861    
  15925000   298.75902     -3758.8098      1202.9676      115.78949      4.6723617    
  15930000   301.27744     -3766.5001      1177.1281      104.78051      10.141157    
  15935000   304.41214     -3729.7993      1211.0043      203.38923     -12.887421    
  15940000   294.85468     -3713.0336      1244.8448      168.52862      8.1538302    
  15945000   301.88834     -3717.4115      1220.2898      202.49365      9.5197104    
  15950000   292.81585     -3723.3736      1257.6562      152.7679       10.102753    
  15955000   300.81331     -3729.8686      1207.991       168.12435      13.512411    
  15960000   294.01982     -3717.8096      1229.66        141.10205      43.325648    
  15965000   297.03692     -3716.402       1191.4431      131.27303      40.960864    
  15970000   291.30445     -3704.4212      1211.271       111.81947     -21.939808    
  15975000   300.6656      -3706.3417      1193.9563      176.29578      10.446347    
  15980000   297.03105     -3748.593       1178.7836      86.370083     -3.6341655    
  15985000   305.23419     -3712.2894      1195.6311      212.87713      19.359657    
  15990000   295.05535     -3763.0146      1231.1436      106.64085      12.573001    
  15995000   301.88219     -3735.2505      1206.4342      170.74409     -23.938302    
  16000000   299.95671     -3754.192       1214.857       143.00689      0.9615891    
  16005000   297.26975     -3746.033       1240.0911      152.37206      13.34849     
  16010000   297.80331     -3746.2765      1194.3112      111.12004      7.3850097    
  16015000   298.82669     -3736.4998      1190.2335      125.9705      -23.854182    
  16020000   309.88133     -3707.7648      1250.4438      313.77115      6.0591547    
  16025000   304.1151      -3728.6731      1214.2085      205.06345     -22.956461    
  16030000   301.71126     -3726.2759      1245.1172      216.87315      27.251801    
  16035000   298.80747     -3742.6257      1248.4081      177.8474       17.059034    
  16040000   305.24313     -3732.8892      1270.4053      267.1314      -18.600927    
  16045000   298.57938     -3713.5635      1210.4573      166.91899      2.9878671    
  16050000   304.91757     -3699.3922      1240.2253      267.53718      17.050042    
  16055000   297.22229     -3715.9951      1189.7373      131.63175      16.464878    
  16060000   292.51059     -3719.8179      1203.4413      99.378994     -8.59096      
  16065000   298.37074     -3696.7105      1173.8751      145.32415      15.805478    
  16070000   303.05254     -3697.793       1166.5633      178.79648     -14.329721    
  16075000   295.82996     -3716.4169      1230.5272      159.54905      1.5887043    
  16080000   304.97791     -3716.2778      1177.8265      188.79234     -4.48436      
  16085000   296.69701     -3690.5762      1231.0906      193.70668      3.1729662    
  16090000   297.5789      -3703.9018      1207.3898      164.56656      10.092989    
  16095000   299.13451     -3714.1547      1209.4543      170.28908     -30.615617    
  16100000   301.21903     -3709.2232      1196.4413      180.84818     -11.268811    
  16105000   301.00681     -3724.2471      1206.8182      174.3035       11.921555    
  16110000   294.55165     -3703.9896      1231.7677      161.78561      15.725612    
  16115000   300.79413     -3714.1513      1199.2003      174.87956     -24.327311    
  16120000   300.76232     -3729.4971      1229.7358      189.78476      8.8760073    
  16125000   298.36572     -3695.2155      1204.7651      177.66427      20.137578    
  16130000   298.138       -3723.5475      1254.2481      196.77876     -15.98728     
  16135000   306.51044     -3703.726       1173.3936      210.61576     -4.6460069    
  16140000   304.23233     -3689.7052      1204.0923      234.96347      23.091148    
  16145000   296.84378     -3734.7685      1204.5526      124.28888      22.172495    
  16150000   293.15293     -3723.8585      1176.7714      74.412475      8.5830206    
  16155000   303.52395     -3739.7769      1188.1647      162.6295       0.83052651   
  16160000   298.75534     -3703.5578      1215.132       183.173        0.97683385   
  16165000   295.82325     -3700.8011      1242.3535      186.93115     -4.9308187    
  16170000   303.75808     -3719.8653      1193.2613      189.73145     -10.40628     
  16175000   299.24862     -3743.8747      1230.4334      162.56853     -19.934121    
  16180000   296.93618     -3717.602       1239.4038      177.1328       11.303197    
  16185000   298.56626     -3729.7373      1220.5671      160.73765     -4.8320706    
  16190000   299.81816     -3705.4476      1235.7124      211.36778     -7.3868945    
  16195000   304.30273     -3719.1662      1241.348       243.38772      16.870881    
  16200000   297.12635     -3718.402       1204.9168      143.54636     -7.5289771    
  16205000   298.35735     -3710.051       1245.5112      203.49991     -9.9244979    
  16210000   297.68648     -3718.0427      1175.4942      119.49201      8.874282     
  16215000   296.12298     -3729.3597      1229.3438      148.04324     -14.654521    
  16220000   307.37497     -3750.6901      1174.8676      172.85669     -13.574807    
  16225000   304.54473     -3715.4791      1196.8134      204.7042      -17.937466    
  16230000   297.23448     -3740.9683      1260.6372      177.66751     -15.944509    
  16235000   306.5517      -3724.805       1229.6979      246.20998     -19.182912    
  16240000   297.86996     -3756.1483      1235.4536      142.98657     -14.955974    
  16245000   304.1579      -3727.2662      1226.9187      219.56323     -1.465107     
  16250000   296.49381     -3768.5118      1173.6176      56.481013      2.7212076    
  16255000   299.69543     -3753.5793      1263.9558      190.382        11.987306    
  16260000   297.90506     -3732.67        1156.3965      87.721658     -3.3975516    
  16265000   302.52084     -3747.9846      1215.0955      172.38234      13.160415    
  16270000   306.41819     -3766.2666      1222.0994      195.95602     -3.1888663    
  16275000   300.41032     -3746.1493      1212.5564      152.80543      21.758781    
  16280000   300.64881     -3744.6761      1220.1197      163.97457     -10.709437    
  16285000   301.74514     -3745.1739      1259.224       212.3849      -22.416133    
  16290000   296.19349     -3736.3967      1191.3659      103.6589       4.5636258    
  16295000   297.93634     -3731.0969      1218.1391      151.31714     -6.273718     
  16300000   303.21851     -3756.8598      1220.6938      175.3443       4.0266087    
  16305000   303.72012     -3751.5586      1211.4776      175.91498      14.171017    
  16310000   300.37968     -3745.6049      1243.1948      183.71411      10.355774    
  16315000   298.84028     -3717.6657      1178.1049      132.79761      7.4666439    
  16320000   295.88915     -3721.7684      1211.598       135.79764     -6.4824337    
  16325000   311.13684     -3730.8698      1205.5707      257.02045     -0.18197144   
  16330000   304.34847     -3781.7134      1208.1313      148.03278      4.5585524    
  16335000   304.77744     -3772.7464      1236.8311      189.53574      6.4238345    
  16340000   306.40709     -3778.2457      1221.3797      183.15804      2.3515139    
  16345000   302.18324     -3764.8211      1260.6684      198.09985     -12.282807    
  16350000   301.21088     -3750.7513      1269.6414      212.4473       14.329602    
  16355000   302.74044     -3768.3792      1243.8437      182.69975      4.7422308    
  16360000   296.40532     -3785.3593      1203.4669      68.691558      4.5119829    
  16365000   302.59694     -3749.8033      1230.9769      187.12561      39.753467    
  16370000   297.69616     -3717.3555      1227.0036      171.77523      9.1477877    
  16375000   293.9564      -3726.8615      1180.2307      82.053767     -17.374018    
  16380000   302.40667     -3739.3404      1159.3721      124.28221     -7.5488679    
  16385000   298.5474      -3746.3671      1217.8022      141.17434     -2.862137     
  16390000   298.30627     -3714.3585      1249.2913      202.51586      6.9951743    
  16395000   299.4547      -3710.2681      1183.7292      151.31382     -23.745935    
  16400000   297.07249     -3716.6816      1163.6626      103.53095      6.4016575    
  16405000   297.90401     -3731.0275      1180.4566      113.41483     -9.5273647    
  16410000   297.24583     -3712.8655      1244.8783      190.11285      4.5235216    
  16415000   297.39031     -3689.9297      1225.208       194.67039      31.428135    
  16420000   295.55076     -3689.561       1167.4922      120.87325      6.2622607    
  16425000   293.087       -3688.5475      1249.3749      181.73741     -15.165213    
  16430000   299.82141     -3701.7938      1219.7007      199.0389       9.5163955    
  16435000   295.77398     -3719.3853      1170.9611      96.513881      7.5960067    
  16440000   300.05843     -3711.6052      1214.4047      186.05099     -19.405124    
  16445000   306.08027     -3727.31        1182.8577      192.64912      17.955144    
  16450000   305.04953     -3696.9896      1174.8611      205.75554     -12.10327     
  16455000   306.96338     -3738.207       1186.6512      193.4427       15.748951    
  16460000   301.47804     -3735.4028      1218.779       179.32259     -2.5621428    
  16465000   299.24969     -3774.7003      1301.1193      202.43849      19.916481    
  16470000   303.62273     -3709.2533      1206.9547      212.82634      10.281342    
  16475000   305.54573     -3677.8662      1226.7199      281.17506     -23.019044    
  16480000   304.58089     -3694.082       1236.6009      266.21224     -6.9892526    
  16485000   297.77279     -3700.2905      1224.6179      187.13986      9.9623434    
  16490000   306.84836     -3692.9625      1175.781       226.78848      9.5895395    
  16495000   301.38465     -3720.1823      1192.0575      166.98633     -5.3286604    
  16500000   299.81819     -3718.684       1187.6979      150.11718     -7.3846262    
  16505000   296.67707     -3709.672       1243.6635      187.00544     -13.472236    
  16510000   304.39612     -3690.9974      1209.6572      240.70086     -15.846095    
  16515000   293.07594     -3673.3929      1176.3201      123.73834     -6.0912103    
  16520000   296.50514     -3655.2271      1219.9272      216.17667     -8.6513452    
  16525000   313.26608     -3680.2998      1211.249       332.30912      18.276614    
  16530000   294.04309     -3663.1392      1209.2041      175.52478      18.871891    
  16535000   300.05477     -3720.9977      1233.291       195.51217      9.6021357    
  16540000   304.13806     -3700.6618      1184.4372      203.50873      21.138051    
  16545000   303.45721     -3699.3796      1207.0909      221.35629      15.390336    
  16550000   294.54362     -3680.9678      1171.4303      124.39819     -11.173935    
  16555000   300.37222     -3714.6422      1188.5625      159.97788     -14.990504    
  16560000   305.11103     -3705.4236      1181.6228      204.6333       1.2944549    
  16565000   290.14938     -3709.3901      1251.5813      136.83174      7.9882652    
  16570000   303.47881     -3713.3971      1221.4608      221.9017       0.89818689   
  16575000   293.80353     -3716.3496      1214.89        125.8579       20.144611    
  16580000   298.49879     -3710.2363      1208.9597      168.02789      22.287627    
  16585000   304.85227     -3734.184       1259.4795      251.41564     -2.6684197    
  16590000   308.23316     -3732.4023      1213.7903      237.74151      9.8699931    
  16595000   297.96727     -3758.4195      1239.4547      145.58672      6.3545314    
  16600000   302.43919     -3729.4057      1231.4532      206.58873      19.204747    
  16605000   302.90848     -3747.8816      1211.6225      172.47889      6.6560797    
  16610000   294.21558     -3696.9434      1196.2446      130.3035       0.96624087   
  16615000   298.47129     -3716.9885      1200.7552      152.82538      0.15773005   
  16620000   299.681       -3689.0447      1164.8778      155.70952     -8.6378628    
  16625000   303.43773     -3684.0269      1226.2645      255.70822     -10.697688    
  16630000   300.27885     -3719.4901      1186.3744      152.10685     -22.495176    
  16635000   296.43747     -3715.4567      1218.4762      153.89077      12.237174    
  16640000   300.60477     -3709.6461      1245.298       223.78905      26.992785    
  16645000   297.6114      -3723.1199      1233.5634      171.81275     -8.5434633    
  16650000   298.61564     -3752.7058      1202.7995      120.44322     -14.529724    
  16655000   296.49991     -3716.2243      1204.4638      139.66922     -15.542711    
  16660000   298.98648     -3691.7383      1147.5785      129.50594     -6.7208614    
  16665000   299.91469     -3717.1829      1222.337       187.12034      5.1871519    
  16670000   299.27595     -3700.0888      1229.8479      206.01341      3.6911272    
  16675000   299.8881      -3715.8206      1197.9296      163.83739      13.972453    
  16680000   303.82842     -3707.2504      1233.9418      243.65587      15.869426    
  16685000   307.49949     -3701.463       1242.6891      291.01878      8.3979578    
  16690000   297.34295     -3704.3385      1183.1684      137.79845      6.1372877    
  16695000   301.81271     -3714.7171      1237.4149      221.637        12.57852     
  16700000   293.86692     -3703.391       1235.007       159.50035     -13.544231    
  16705000   299.46129     -3738.1653      1217.1504      156.89674     -3.7638965    
  16710000   294.79694     -3715.5734      1223.7513      144.379       -1.2790419    
  16715000   295.80664     -3720.3415      1188.2237      113.11242      7.7494854    
  16720000   296.35089     -3727.8938      1192.9255      115.12887      23.031738    
  16725000   299.19908     -3747.7551      1192.2294      120.04116      0.76400787   
  16730000   292.20424     -3730.6781      1186.2204      68.558308      28.882146    
  16735000   300.09488     -3745.8491      1222.7869      160.51523      1.0633156    
  16740000   305.86221     -3745.7414      1201.1469      190.55692     -13.572941    
  16745000   292.00182     -3726.4414      1259.0301      143.79456     -4.3557687    
  16750000   302.79992     -3692.8891      1245.35        260.22795     -7.0701859    
  16755000   303.1951      -3768.6382      1216.7793      159.44207      1.1083724    
  16760000   291.12398     -3746.6641      1237.7163      94.408059     -18.6584      
  16765000   290.35038     -3737.0558      1260.6466      120.0288       23.484994    
  16770000   303.91402     -3780.9149      1174.4168      111.2318       7.2461501    
  16775000   306.67903     -3771.1919      1223.9766      195.24048     -7.9940357    
  16780000   303.31689     -3751.267       1194.3664      155.48951      6.0805207    
  16785000   298.72696     -3727.0265      1214.6398      158.95832     -4.6182897    
  16790000   305.51237     -3769.4093      1181.7705      144.38422     -12.403856    
  16795000   304.59606     -3761.2015      1210.4816      173.10901      3.1001649    
  16800000   307.88143     -3746.5827      1254.3745      260.99995     -15.394901    
  16805000   305.13897     -3761.3326      1209.2149      176.56619     -5.1033091    
  16810000   300.00749     -3768.1034      1234.5059      149.19859      1.4665658    
  16815000   306.77295     -3750.5044      1214.7518      207.54317      16.415314    
  16820000   297.72422     -3749.5886      1191.586       104.37542      19.996648    
  16825000   295.32074     -3757.6683      1192.0244      75.241232     -21.315097    
  16830000   301.87234     -3734.232       1252.8527      218.09298     -5.6091641    
  16835000   294.73231     -3754.8261      1218.1624      98.959392     -9.0772634    
  16840000   302.92396     -3742.231       1192.8646      159.50999      51.849495    
  16845000   296.45741     -3762.7079      1230.355       118.69681      13.55221     
  16850000   297.86462     -3721.464       1262.4291      204.5987       3.4535379    
  16855000   301.43954     -3785.2657      1211.6522      121.98853      27.874765    
  16860000   296.11113     -3759.6864      1265.8428      154.1095      -31.002411    
  16865000   297.32488     -3762.1079      1237.6608      134.35991     -2.2691943    
  16870000   305.10267     -3757.3648      1177.2491      148.24359      14.361058    
  16875000   291.33805     -3732.2862      1246.4857      119.46965      2.9663237    
  16880000   297.14756     -3738.6904      1211.0332      129.56409      7.6938198    
  16885000   300.6897      -3743.1721      1252.5264      198.25084      6.257821     
  16890000   302.87711     -3732.1996      1234.9142      211.17203     -4.9884239    
  16895000   298.68819     -3699.7589      1247.1688      218.40815     -8.6170954    
  16900000   306.45987     -3705.5047      1191.6198      226.61113      22.815276    
  16905000   293.97074     -3685.0312      1232.7838      176.56536      19.72655     
  16910000   299.72115     -3714.7371      1201.5013      166.99958      6.7170518    
  16915000   303.97883     -3713.3681      1147.8165      152.75781      27.68091     
  16920000   306.26209     -3758.5083      1222.852       203.07099      21.932603    
  16925000   290.31108     -3732.3315      1220.4707      84.225722      29.887724    
  16930000   295.84165     -3747.0805      1193.3966      91.85937      -5.1125908    
  16935000   295.29054     -3721.978       1222.8309      141.46793      10.786233    
  16940000   294.67182     -3752.0721      1212.4516      95.461745     -16.921118    
  16945000   299.18265     -3729.5066      1214.7746      160.68788     -0.60446626   
  16950000   299.25051     -3702.7402      1231.9317      205.21836      1.4945017    
  16955000   309.60665     -3705.0765      1204.7583      268.31769      15.924447    
  16960000   295.63175     -3720.0283      1200.4044      124.04244      11.391088    
  16965000   295.16757     -3695.0392      1251.2756      195.75179      12.466652    
  16970000   300.73411     -3715.2497      1238.1758      212.21996      17.031974    
  16975000   299.85186     -3759.0048      1181.9086      104.30817     -4.1091386    
  16980000   293.51412     -3705.0143      1200.3488      120.06408      5.4019432    
  16985000   301.02102     -3722.1489      1176.5092      146.21977     -13.65465     
  16990000   302.63219     -3716.4751      1113.3772      103.16934     -19.141301    
  16995000   300.36516     -3739.3451      1238.8848      185.5342      -16.823324    
  17000000   304.43223     -3725.0469      1215.3144      212.63149     -13.611158    
  17005000   297.62504     -3754.5134      1217.156       124.1337       10.45728     
  17010000   293.41658     -3754.693       1194.7656      63.929936     -23.598142    
  17015000   301.61739     -3724.7497      1238.3754      210.81814      12.519027    
  17020000   302.20215     -3740.3704      1177.3403      139.39152      20.00986     
  17025000   300.24826     -3750.7199      1211.9087      146.13786      10.565497    
  17030000   299.07625     -3730.0654      1224.4406      168.84365     -15.392095    
  17035000   302.58327     -3711.1128      1206.2248      200.94184     -9.5654132    
  17040000   302.75969     -3712.9599      1244.9058      239.35325      31.374246    
  17045000   301.81758     -3703.7391      1174.9976      170.24117      23.415398    
  17050000   304.09825     -3727.5044      1234.8405      226.7135      -20.72694     
  17055000   300.87593     -3716.2003      1239.5339      213.89557     -1.3816475    
  17060000   298.10217     -3740.783       1214.6368      139.61164     -5.1129069    
  17065000   297.36567     -3725.4711      1203.0039      136.70451      22.632786    
  17070000   296.27139     -3733.1905      1121.8508      38.046462      19.572133    
  17075000   298.36886     -3730.4423      1230.2176      167.918        13.099003    
  17080000   301.341       -3741.4378      1244.1645      197.44751     -23.135979    
  17085000   299.97915     -3714.1201      1163.1779      131.60035      17.262177    
  17090000   299.25807     -3741.788       1200.8135      135.11983      19.932086    
  17095000   303.2329      -3712.383       1224.888       224.14407     -4.2303788    
  17100000   302.32814     -3748.6209      1233.554       188.48134      12.137445    
  17105000   308.81241     -3773.7705      1222.7087      210.47157      4.1464157    
  17110000   304.79161     -3755.1974      1180.9692      151.34948     -4.3360609    
  17115000   297.2489      -3789.2014      1214.147       83.073177      26.144797    
  17120000   301.18903     -3739.5809      1226.274       180.0549      -11.457698    
  17125000   295.84434     -3764.4331      1273.0309      154.16506     -15.504016    
  17130000   307.62341     -3751.8506      1208.3097      207.35989      27.51421     
  17135000   298.57661     -3800.5         1208.5089      78.009345      7.7376416    
  17140000   306.63236     -3783.2959      1227.1698      185.91237      28.00467     
  17145000   307.95807     -3812.1094      1211.3417      153.12575      8.1983794    
  17150000   295.29743     -3791.9598      1228.6981      77.414935      12.586324    
  17155000   295.67085     -3801.0465      1183.9983      26.967647     -14.401301    
  17160000   305.63292     -3826.7122      1211.9566      118.3455       8.9627169    
  17165000   301.73565     -3800.7871      1247.9032      145.36611      6.6235293    
  17170000   300.70033     -3836.5677      1167.2437      19.66776      -6.2536767    
  17175000   295.30959     -3801.3658      1154.3582     -6.2221691      13.091024    
  17180000   303.60475     -3796.9365      1150.0525      68.080311      24.400321    
  17185000   301.638       -3783.9889      1232.1729      145.56078     -2.9087974    
  17190000   298.74889     -3780.4495      1236.6458      127.73741     -13.491442    
  17195000   300.553       -3771.597       1217.2861      133.36334      24.757256    
  17200000   299.49778     -3792.8714      1219.5662      104.93279      9.6814518    
  17205000   300.08694     -3779.831       1232.2545      135.93001     -5.5834253    
  17210000   303.8456      -3788.7142      1221.2461      149.65007      19.788708    
  17215000   301.33697     -3772.6292      1219.0924      141.14799     -9.6135539    
  17220000   297.40763     -3787.7942      1156.2671      28.019835     -15.30053     
  17225000   301.94239     -3764.9383      1159.0444      94.204764     -27.130814    
  17230000   300.56462     -3777.1656      1222.7645      133.37708      5.8133871    
  17235000   288.99257     -3817.3352      1190.3736     -42.665616      0.93386772   
  17240000   301.31219     -3778.3322      1234.1525      150.28352      7.8197473    
  17245000   297.64893     -3770.247       1226.6573      118.11502      21.171071    
  17250000   300.67179     -3774.4552      1171.7968      86.078051      11.76188     
  17255000   308.86098     -3775.4707      1244.346       230.84308      9.5845077    
  17260000   297.15436     -3772.3656      1216.658       101.57462     -32.093075    
  17265000   306.90743     -3823.7372      1218.9461      139.70713      12.313218    
  17270000   300.49899     -3787.3052      1198.6282      98.514251      41.854349    
  17275000   303.25038     -3812.8251      1189.1551      88.125314      32.67381     
  17280000   302.41886     -3779.3028      1189.9684      115.02506      15.210841    
  17285000   295.79694     -3751.2483      1180.8923      74.787548      0.39048321   
  17290000   305.86849     -3768.127       1243.8683      210.94886     -1.5251646    
  17295000   297.78799     -3771.1427      1185.6408      77.446496      21.597565    
  17300000   302.79985     -3761.6347      1243.4858      189.61755      20.340316    
  17305000   307.0016      -3772.2772      1230.6019      203.66505     -3.23883      
  17310000   298.98583     -3749.1725      1206.9594      131.44679     -18.152008    
  17315000   294.7134      -3758.0068      1206.7837      84.230862     -17.841881    
  17320000   305.54893     -3754.9311      1202.0689      179.4878      -6.4672964    
  17325000   305.28778     -3746.6513      1195.0967      178.4601       10.909249    
  17330000   306.64951     -3760.3728      1222.2752      204.09418     -17.496698    
  17335000   301.53716     -3762.9329      1172.7479      106.29005     -5.2693323    
  17340000   299.90575     -3732.7883      1247.3588      196.45669     -3.3109804    
  17345000   302.82822     -3758.7494      1219.4391      168.70997     -0.61594236   
  17350000   303.91236     -3759.6266      1193.604       151.6924       14.466572    
  17355000   303.14666     -3754.083       1224.904       181.68876      11.214108    
  17360000   300.36539     -3736.6376      1165.2118      114.57074      23.298622    
  17365000   298.01314     -3733.3996      1219.4887      151.05083      6.9000406    
  17370000   296.5827      -3752.5276      1258.7203      158.36274     -13.196249    
  17375000   295.1069      -3743.5348      1196.1913      91.629367     -3.0098282    
  17380000   292.58279     -3754.494       1226.6352      88.542469     -7.9047945    
  17385000   296.58194     -3749.9212      1285.436       187.67803     -13.784387    
  17390000   293.63048     -3720.3749      1194.6497      100.04482     -5.7204754    
  17395000   306.33955     -3717.0963      1175.2885      197.6122       12.459459    
  17400000   295.54617     -3712.0749      1235.0386      165.86468     -11.24545     
  17405000   300.60438     -3723.9742      1228.6889      192.84834      2.6268554    
  17410000   297.1437      -3714.8123      1178.7429      121.11732     -4.6220618    
  17415000   296.67067     -3711.5792      1219.0889      160.46649     -16.549383    
  17420000   305.04147     -3707.441       1213.7319      234.10292      18.159896    
  17425000   302.67328     -3713.3843      1202.8521      196.10248      0.62608472   
  17430000   294.38678     -3689.6829      1186.0623      128.91263     -7.701897     
  17435000   295.9136      -3714.6029      1221.0474      152.6312       0.047093833  
  17440000   294.97623     -3700.6701      1219.6661      156.80036      4.8121088    
  17445000   298.10309     -3713.2763      1217.4405      169.93033     -6.5800898    
  17450000   300.52477     -3756.3652      1292.9356      223.99207     -1.4100597    
  17455000   299.20197     -3731.09        1189.6823      134.185        17.742675    
  17460000   300.23696     -3722.6077      1251.383       213.62339     -15.377597    
  17465000   297.7617      -3719.0258      1241.9528      185.6402       3.0704154    
  17470000   297.02204     -3755.1555      1219.6675      120.61079      29.636242    
  17475000   300.8221      -3707.5574      1202.6373      185.16046      7.9802833    
  17480000   308.83645     -3737.304       1200.3244      224.76883     -3.9507517    
  17485000   304.29011     -3702.2536      1221.9887      240.82814      19.112023    
  17490000   303.85334     -3727.8719      1170.1744      159.48979      25.32897     
  17495000   297.77057     -3743.9188      1223.8593      142.73307      5.3194766    
  17500000   294.63442     -3762.2781      1207.9331      80.402707      16.49557     
  17505000   299.92484     -3759.2957      1240.4937      163.25488      2.5902385    
  17510000   304.83966     -3720.2551      1204.8037      210.55608     -26.475489    
  17515000   303.23256     -3716.493       1270.7353      265.87824      0.51920849   
  17520000   300.06871     -3761.0309      1185.9565      108.26915      16.933187    
  17525000   299.55609     -3736.3969      1197.0732      139.43571      26.31258     
  17530000   295.86993     -3709.2377      1220.2015      156.76007     -11.437613    
  17535000   297.54865     -3753.8102      1215.1193      122.11707      11.597318    
  17540000   297.63187     -3713.2787      1228.4199      176.69343      18.066381    
  17545000   302.03864     -3721.5495      1171.3469      150.75686      6.3565044    
  17550000   311.60681     -3745.9485      1193.1418      233.71547     -14.354857    
  17555000   293.56022     -3762.1687      1223.7121      86.685206     -19.594665    
  17560000   301.43932     -3745.0451      1232.9345      183.48941     -1.7231022    
  17565000   288.90824     -3750.7941      1212.2238      44.971447      1.2023272    
  17570000   301.61304     -3747.8325      1220.3001      169.6211      -3.5582395    
  17575000   306.28191     -3728.0434      1185.1817      196.04285     -7.1833516    
  17580000   291.47528     -3769.2673      1165.7065      2.9365456     -14.60743     
  17585000   304.76113     -3752.1861      1196.5962      169.71518     -15.78976     
  17590000   292.20543     -3759.1516      1252.8678      106.74292     -29.984202    
  17595000   299.26135     -3766.1252      1221.2293      131.22781      16.0549      
  17600000   305.30432     -3776.7115      1215.9526      169.40366      12.046471    
  17605000   304.39606     -3771.0132      1221.937       172.96436      4.3751046    
  17610000   298.08182     -3764.7505      1177.5308      78.356145     -22.64528     
  17615000   305.40408     -3744.4483      1236.4301      223.03651     -11.746559    
  17620000   299.76361     -3747.3566      1206.0373      139.29591      19.0494      
  17625000   296.6722      -3752.7972      1204.9057      105.07895      19.548531    
  17630000   302.63968     -3745.6578      1206.7118      167.38829     -42.403417    
  17635000   297.92367     -3778.2151      1294.7699      180.71644      16.55195     
  17640000   300.7136      -3730.0729      1218.871       177.90843      0.19285662   
  17645000   300.24601     -3736.5574      1221.684       170.05566      11.877394    
  17650000   305.31651     -3739.0853      1219.8036      210.98982     -21.516736    
  17655000   296.43206     -3724.6398      1173.723       99.906157      14.715057    
  17660000   302.60631     -3704.3057      1202.8172      204.54736      7.3690479    
  17665000   289.78717     -3694.134       1164.1685      61.436038      12.139212    
  17670000   300.86772     -3691.864       1211.2646      209.88915      0.80535666   
  17675000   301.31954     -3737.6055      1207.0566      163.97996      10.205729    
  17680000   301.24995     -3715.4575      1154.5932      133.04237     -20.857834    
  17685000   296.82873     -3701.5678      1264.074       216.87641     -11.755411    
  17690000   300.68988     -3669.0314      1190.2571      210.124       -3.9996271    
  17695000   307.49474     -3679.5657      1241.9869      312.17148      16.905583    
  17700000   295.71538     -3686.2907      1178.4023      136.5257      -17.067651    
  17705000   294.92693     -3700.2169      1152.5019      89.648535      12.108702    
  17710000   300.38166     -3664.0816      1202.0821      224.14256      0.23271799   
  17715000   295.42728     -3716.7156      1229.702       154.82419     -9.7312557    
  17720000   309.41008     -3698.1414      1218.4762      287.21281      40.311807    
  17725000   300.31305     -3695.968       1203.9028      193.46326     -4.2404585    
  17730000   307.00809     -3708.0346      1288.8         326.16371      0.048131322  
  17735000   301.22513     -3698.5879      1204.925       200.02186     -0.7586654    
  17740000   300.14315     -3658.5285      1184.9738      210.45445      9.5487308    
  17745000   288.77144     -3669.569       1239.2594      152.00885     -21.028123    
  17750000   294.04669     -3633.5004      1230.8314      226.82298     -2.7919847    
  17755000   292.34205     -3681.9914      1220.2489      152.50584     -4.1526552    
  17760000   304.8692      -3705.792       1188.008       208.48756      20.583446    
  17765000   292.38143     -3685.2364      1199.2517      128.61583      1.5332364    
  17770000   290.94943     -3685.5726      1195.8646      112.08694     -2.0087952    
  17775000   300.0641      -3662.7095      1249.6043      270.197        10.901895    
  17780000   302.43031     -3670.7115      1161.9676      195.71799     -11.98423     
  17785000   301.21292     -3695.902       1214.1765      211.85        -13.314686    
  17790000   297.92354     -3687.444       1191.1624      167.87889      19.466405    
  17795000   299.02801     -3668.9632      1225.293       230.3668      -7.3564959    
  17800000   298.64587     -3676.6223      1223.5281      217.52555     -7.058348     
  17805000   299.37393     -3678.2414      1194.0745      192.9635       4.666012     
  17810000   302.41993     -3715.6735      1218.9197      207.61524      1.2389292    
  17815000   300.7176      -3676.4661      1209.9997      222.67973      12.560406    
  17820000   302.14503     -3648.6037      1207.8736      261.18073      4.3764662    
  17825000   307.13504     -3658.6877      1217.386       305.23193      26.130132    
  17830000   296.02687     -3662.6808      1239.1391      223.65791      10.624922    
  17835000   303.36984     -3670.5003      1219.4062      261.76947     -6.215546     
  17840000   294.1733      -3688.4691      1191.4672      133.62225     -17.94828     
  17845000   297.25768     -3675.0911      1228.9405      212.05546      43.449438    
  17850000   296.70749     -3666.3756      1215.5331      202.44352      32.707497    
  17855000   290.90789     -3689.4191      1197.9215      109.92587      6.9920009    
  17860000   298.75053     -3680.7786      1170.4678      161.24492     -6.3272188    
  17865000   294.13215     -3718.4554      1204.8276      116.62843      7.4734561    
  17870000   292.69042     -3705.0944      1205.3779      117.64707      0.91881064   
  17875000   304.93295     -3693.1375      1197.3056      231.00967      0.67554213   
  17880000   298.29328     -3710.6833      1211.6109      168.39445      3.7488977    
  17885000   292.20242     -3681.9937      1229.3903      160.39629      4.6579897    
  17890000   298.9525      -3695.103       1205.0126      183.2714      -3.7654883    
  17895000   301.44679     -3718.6816      1237.61        214.59529     -3.7206108    
  17900000   294.0447      -3702.652       1244.2375      171.05963      30.127141    
  17905000   303.34649     -3701.2131      1224.6797      236.12139     -26.065613    
  17910000   291.66786     -3702.4496      1234.286       140.05585      0.66594845   
  17915000   294.92286     -3729.1813      1211.9387      120.08453      9.5856926    
  17920000   307.42542     -3724.0672      1175.4736      200.53667      19.041033    
  17925000   298.00984     -3737.3457      1218.9132      146.49961     -12.243446    
  17930000   309.99316     -3727.5811      1268.3319      312.84294      23.068239    
  17935000   303.84058     -3763.4781      1191.5852      145.1802       1.0200515    
  17940000   306.68442     -3748.526       1237.1575      231.13548      24.247881    
  17945000   292.15901     -3751.9737      1213.9791      74.616987      18.597285    
  17950000   293.34587     -3737.2949      1177.3788      63.30885      -7.60633      
  17955000   298.71368     -3715.0816      1211.4186      167.56318      14.500367    
  17960000   303.25654     -3739.2069      1132.4822      105.12571     -21.564893    
  17965000   299.45071     -3744.0791      1193.138       126.87592      14.926952    
  17970000   301.05044     -3726.3941      1221.6231      187.35148     -4.0467505    
  17975000   299.49748     -3731.871       1206.0156      152.37991      11.310565    
  17980000   303.60274     -3744.2198      1194.9138      165.64032     -6.9810578    
  17985000   300.95473     -3736.0209      1233.3685      188.61424      7.2555681    
  17990000   301.31719     -3747.2533      1252.2025      199.45711     -12.659458    
  17995000   307.73898     -3754.6702      1230.6791      227.94326      7.4802343    
  18000000   299.36333     -3753.0144      1220.4521      144.47335     -19.199689    
  18005000   297.60376     -3731.8853      1199.5025      128.91813      25.071327    
  18010000   301.99538     -3734.1211      1200.544       166.99547      5.851001     
  18015000   301.64466     -3724.2649      1243.9543      217.12576     -10.357731    
  18020000   297.50029     -3766.4643      1214.5564      108.46768      15.694601    
  18025000   295.2349      -3683.8762      1217.5984      173.83967      2.6638272    
  18030000   311.32051     -3733.2812      1219.7537      270.43446     -7.4212065    
  18035000   295.69605     -3710.1998      1180.8795      114.92107      7.7622478    
  18040000   302.29942     -3738.0965      1227.2025      192.39746     -14.828928    
  18045000   293.36285     -3742.927       1179.9728      60.422598      8.8678511    
  18050000   299.91648     -3732.4072      1216.8209      166.39586      4.1722291    
  18055000   298.84724     -3734.2829      1188.4736      126.61122      16.141059    
  18060000   301.16533     -3743.5417      1236.8865      186.49468      3.071227     
  18065000   299.40514     -3720.7641      1190.6591      147.30453      2.8720555    
  18070000   290.95623     -3762.285       1208.8321      48.402916      17.663785    
  18075000   300.14865     -3718.2089      1185.1431      150.99251      12.208937    
  18080000   303.05217     -3745.9757      1213.1099      177.15708      35.46595     
  18085000   304.15537     -3724.0509      1232.8564      228.69372     -0.93902276   
  18090000   293.49911     -3739.4544      1225.2781      110.41905      9.6222846    
  18095000   299.99623     -3725.981       1211.4621      168.1764      -30.085476    
  18100000   301.58881     -3753.6157      1191.0435      134.3646       17.285461    
  18105000   303.49909     -3732.6789      1219.7691      201.10963     -19.124981    
  18110000   302.26863     -3726.0777      1262.5412      239.47964      8.4843658    
  18115000   294.3945      -3729.4741      1228.2345      131.36267     -3.997305     
  18120000   296.55001     -3721.3079      1190.0319      120.60172      3.7871956    
  18125000   298.0421      -3731.9009      1218.3128      151.63262     -2.3947614    
  18130000   294.27516     -3722.4791      1215.3928      124.44879      3.4545107    
  18135000   300.28911     -3704.336       1276.1552      257.13351     -2.7559738    
  18140000   302.89909     -3690.1713      1247.8461      266.3288       9.8366596    
  18145000   302.79928     -3734.2103      1206.792       180.34312     -4.6819986    
  18150000   305.07058     -3705.1989      1217.5065      240.37988     -6.2699269    
  18155000   291.0526      -3722.2549      1269.7458      150.20846      6.5165911    
  18160000   306.27812     -3724.7993      1201.8904      215.96174      8.6559497    
  18165000   303.55014     -3717.191       1198.7166      196.00155      14.501529    
  18170000   293.20092     -3724.1946      1190.1859      87.92         -17.53949     
  18175000   299.00671     -3727.151       1233.2725      179.9681       21.302852    
  18180000   305.33184     -3722.3556      1245.8635      253.91657     -13.938832    
  18185000   297.57797     -3710.4703      1158.7573      109.35717      2.561565     
  18190000   307.71836     -3731.7879      1226.6461      246.60809     -4.0399337    
  18195000   304.44321     -3740.1186      1278.4199      260.76348      11.88538     
  18200000   301.46678     -3698.5153      1220.0258      217.35613     -27.363645    
  18205000   305.36593     -3771.7212      1213.0158      172.00807      10.997957    
  18210000   303.03857     -3721.5228      1234.6625      223.04092     -5.7300339    
  18215000   310.3699      -3713.947       1202.1334      263.64756      16.306401    
  18220000   301.48216     -3768.0884      1218.8118      146.70653      19.948898    
  18225000   308.79701     -3748.8713      1231.1315      243.65595      29.334009    
  18230000   303.51488     -3736.8142      1224.7249      202.07123     -2.4233716    
  18235000   301.20115     -3746.4962      1214.4516      161.42561      15.749976    
  18240000   296.95093     -3744.271       1216.983       128.17495      19.259334    
  18245000   298.91675     -3738.9401      1191.6428      125.74486     -4.4956885    
  18250000   304.06403     -3733.0273      1245.4197      231.46373     -17.360972    
  18255000   298.08064     -3743.8407      1199.8537      121.57828      9.3542281    
  18260000   299.33055     -3717.8907      1234.8677      193.71951      0.35343646   
  18265000   300.03153     -3730.8213      1235.4669      187.65652      9.3905948    
  18270000   292.04578     -3730.2335      1224.9155      106.281        6.3824788    
  18275000   299.0584      -3715.9628      1223.0802      181.42628      10.95886     
  18280000   303.48212     -3690.8629      1199.4579      222.46265     -2.3185647    
  18285000   303.08523     -3719.3088      1230.0717      221.08143      14.538327    
  18290000   300.31158     -3674.1344      1225.4219      236.80274      24.639104    
  18295000   301.53276     -3738.2611      1223.054       181.22853     -22.404446    
  18300000   302.43076     -3697.6823      1188.9097      195.69334     -7.1795046    
  18305000   305.34917     -3711.0882      1197.8702      217.34566     -11.069114    
  18310000   303.52511     -3697.8425      1190.0732      206.48287      15.739665    
  18315000   300.1641      -3739.1883      1228.907       173.91526      23.527848    
  18320000   300.88371     -3704.9938      1245.5912      231.229        2.412692     
  18325000   306.87387     -3695.8519      1188.3147      236.66096      10.429763    
  18330000   298.90045     -3732.3777      1278.0792      218.5979      -28.50193     
  18335000   296.38402     -3689.9041      1247.4283      207.91761      30.059531    
  18340000   291.53572     -3718.6011      1199.4261      87.862866      15.471827    
  18345000   296.95631     -3736.3657      1183.3456      102.49097      8.3414751    
  18350000   306.90221     -3719.9287      1225.1583      249.68122      1.9482839    
  18355000   307.53068     -3671.9167      1223.8145      301.96947      20.26605     
  18360000   305.09978     -3713.207       1240.4306      255.55717     -5.3296333    
  18365000   300.61702     -3689.6098      1230.3741      229.01107      21.255748    
  18370000   291.96624     -3697.2007      1181.1905      94.877522      16.867832    
  18375000   303.48268     -3681.0201      1242.0428      274.89538      2.3067861    
  18380000   294.09304     -3712.375       1193.3557      110.88727     -7.2820475    
  18385000   297.27561     -3693.7255      1232.7392      197.38011     -11.82237     
  18390000   297.90287     -3667.2859      1193.3929      190.08259      13.714392    
  18395000   306.83019     -3687.4185      1209.4538      265.8429       33.601968    
  18400000   299.15362     -3669.7225      1237.8997      243.33757     -3.6113556    
  18405000   296.4107      -3688.043       1236.6026      199.19159      7.7574843    
  18410000   296.84867     -3688.1091      1205.0365      171.47586      1.7018907    
  18415000   297.11879     -3680.0075      1195.6654      172.6219      -13.803512    
  18420000   293.18035     -3641.0765      1164.6356      145.30395     -13.818023    
  18425000   302.8508      -3663.2134      1239.093       284.10175      3.5364089    
  18430000   310.64362     -3687.9454      1194.9377      284.90116     -31.533377    
  18435000   299.51298     -3644.4224      1219.5837      253.53522      15.121649    
  18440000   306.52429     -3667.9023      1211.8566      285.02634      1.7876162    
  18445000   300.48573     -3645.8982      1206.5655      247.73995      2.5162098    
  18450000   295.78237     -3642.2749      1226.0625      228.80083      25.366289    
  18455000   293.81482     -3693.9732      1210.3567      143.80205      12.174175    
  18460000   298.84779     -3662.3198      1243.9481      254.05373     -19.403202    
  18465000   299.09925     -3684.2321      1189.9474      180.3895      -6.5881605    
  18470000   299.21199     -3671.9355      1245.1708      248.91761     -18.070022    
  18475000   304.6677      -3657.2317      1183.8515      251.08932      6.503097     
  18480000   308.59665     -3679.5958      1183.5884      263.5966      -3.936047     
  18485000   294.17577     -3702.929       1229.6037      157.32101      8.8397523    
  18490000   300.54046     -3689.927       1228.1687      225.80374     -5.8524296    
  18495000   296.31491     -3673.3435      1226.544       202.97585     -2.7526828    
  18500000   299.51616     -3675.8566      1183.6846      186.23042     -5.8796868    
  18505000   298.08815     -3665.3993      1255.306       255.53915     -30.685417    
  18510000   290.77213     -3675.4766      1205.8825      130.61541      4.1524733    
  18515000   308.11586     -3674.0559      1258.6769      339.9256       0.27222496   
  18520000   294.55624     -3698.9298      1186.0078      121.1266       6.05888      
  18525000   300.1215      -3699.0507      1217.4659      202.23084     -5.8988725    
  18530000   297.79168     -3657.2147      1210.2424      216.00901     -13.432264    
  18535000   291.43546     -3680.1267      1171.2938      97.308344     -5.0286131    
  18540000   302.57147     -3653.8762      1236.9439      288.79183      15.527736    
  18545000   300.21299     -3663.3181      1211.5163      232.83195     -22.653409    
  18550000   299.99132     -3725.6628      1241.7132      198.70189     -8.5747874    
  18555000   292.42452     -3731.0632      1213.7466      97.669192     -13.204605    
  18560000   307.46049     -3736.2076      1214.7117      227.94804      24.257607    
  18565000   303.55736     -3738.4476      1249.1314      225.22436      17.359477    
  18570000   298.81129     -3729.5426      1186.1419      128.69833      0.73023556   
  18575000   304.2227      -3765.9257      1245.1967      199.76132      8.9592462    
  18580000   300.32693     -3731.3274      1235.1553      189.4805      -3.9700426    
  18585000   305.90398     -3739.2434      1228.8686      225.15018      1.9083194    
  18590000   303.41396     -3742.3117      1235.5187      206.46506      14.43299     
  18595000   296.83604     -3733.1999      1240.6309      161.86657     -10.827923    
  18600000   294.0178      -3730.0924      1168.1342      67.275377      28.953192    
  18605000   299.51264     -3727.1244      1193.1013      144.34773      31.102458    
  18610000   294.18642     -3739.807       1235.8229      126.75744     -24.856732    
  18615000   300.80992     -3747.0266      1181.9329      124.87795      9.552618     
  18620000   302.49887     -3725.3356      1202.0264      181.76587     -20.623183    
  18625000   299.64102     -3711.7707      1246.2033      213.95146      13.482597    
  18630000   301.3403      -3716.617       1206.3218      184.41935      12.019417    
  18635000   302.97781     -3731.7092      1213.2324      190.8811       1.9062188    
  18640000   303.09305     -3770.3507      1209.32        149.35773     -10.884233    
  18645000   302.10324     -3768.2237      1192.5225      125.83594      8.0502937    
  18650000   295.02561     -3769.0082      1203.0429      72.28051      -8.3291672    
  18655000   299.81049     -3761.2358      1210.2464      130.04496      3.6047623    
  18660000   297.60155     -3729.0596      1241.5637      173.78513     -33.608514    
  18665000   301.35959     -3728.6187      1184.3237      150.59211     -35.05989     
  18670000   294.28807     -3756.3535      1167.7832      43.080166     -25.38866     
  18675000   294.99628     -3761.5683      1224.7523      101.16758      1.0044204    
  18680000   293.7159      -3746.4259      1179.9069      60.014859     -30.726685    
  18685000   308.63567     -3783.941       1163.5854      139.59729      32.228829    
  18690000   299.08773     -3743.4357      1271.9214      203.05687      19.901123    
  18695000   297.82692     -3762.8009      1193.3572      93.852705     -1.2506313    
  18700000   297.83548     -3749.2855      1231.5326      145.62006      7.8012784    
  18705000   303.07047     -3720.3627      1216.6157      206.4395      -1.7467915    
  18710000   305.80528     -3773.1217      1248.4787      209.99933      1.6592163    
  18715000   301.07247     -3745.6444      1219.7255      166.4007       34.26233     
  18720000   300.78472     -3721.0098      1239.5142      208.25078      22.687876    
  18725000   313.615       -3732.6961      1217.6875      289.47167     -0.38313469   
  18730000   298.58339     -3717.2759      1189.9339      142.71917      44.701442    
  18735000   296.77317     -3735.1094      1184.2029      102.96684      12.506519    
  18740000   305.69424     -3725.6512      1225.7017      233.69989      9.4765009    
  18745000   300.60344     -3757.0949      1196.1453      127.17572     -5.0328537    
  18750000   297.77006     -3716.2293      1194.5809      141.13959      3.2036732    
  18755000   304.70684     -3742.8646      1207.4607      189.41568      5.3836201    
  18760000   309.19504     -3735.6259      1204.6643      233.99342     -19.309987    
  18765000   293.03725     -3743.4664      1254.3356      131.33429      1.168136     
  18770000   299.07039     -3721.5511      1193.3153      146.1802      -1.7310197    
  18775000   292.68849     -3734.9231      1253.8658      136.28916      10.207232    
  18780000   297.12172     -3706.6472      1207.2221      157.56509      6.4828817    
  18785000   300.16759     -3713.6844      1194.2962      164.83951      25.834587    
  18790000   299.39938     -3695.8084      1203.8075      185.35705      10.994601    
  18795000   299.82733     -3684.6546      1213.8077      210.33814      0.46119708   
  18800000   295.61161     -3700.264       1196.1527      139.37483      19.577809    
  18805000   305.17918     -3729.1541      1175.7929      175.68227      4.1612847    
  18810000   294.10592     -3726.8486      1230.1437      133.31672      21.375464    
  18815000   300.97044     -3739.6804      1235.5698      187.29656     -25.349721    
  18820000   303.43356     -3723.2039      1220.0047      210.23426     -7.8284802    
  18825000   296.50849     -3751.9633      1156.2841      55.827231      3.5672188    
  18830000   299.30292     -3730.8545      1201.1238      146.7648       18.286204    
  18835000   308.35293     -3736.4278      1238.4564      259.45307      3.4445027    
  18840000   297.23702     -3706.852       1236.387       187.55628      17.110364    
  18845000   305.45664     -3732.1713      1188.7633      188.11675     -14.180324    
  18850000   303.77482     -3750.7168      1188.8243      154.59269      19.344106    
  18855000   305.2961      -3772.6638      1231.76        189.18528      16.179369    
  18860000   298.73621     -3724.6766      1202.9465      149.69756      8.9852638    
  18865000   306.3218      -3776.739       1227.2855      189.80783      8.3354032    
  18870000   302.2375      -3730.7667      1213.2032      185.17421      1.8545438    
  18875000   293.96727     -3768.8569      1206.2097      66.134506      7.0855507    
  18880000   296.89027     -3765.4501      1207.918       97.38844       22.0901      
  18885000   294.2211      -3787.1168      1236.8116      80.746406      11.729554    
  18890000   302.28434     -3760.3592      1232.0773      174.8747       63.758104    
  18895000   286.62647     -3749.2941      1187.7262      1.5692733      21.079595    
  18900000   302.3669      -3767.7224      1211.7682      147.94068      4.7012637    
  18905000   301.42492     -3760.1926      1228.0325      163.3112       11.224582    
  18910000   302.80251     -3763.4023      1224.272       168.66001      16.870873    
  18915000   296.03298     -3768.2565      1215.7601      94.757908      7.480416     
  18920000   299.07163     -3739.2462      1235.5623      170.7433      -0.3597373    
  18925000   298.44845     -3763.7512      1243.9178      149.02098     -29.084285    
  18930000   298.04936     -3735.8597      1210.1285      139.55434      26.276977    
  18935000   298.54889     -3734.3615      1207.0352      142.42623      13.474275    
  18940000   303.15472     -3715.6887      1245.5262      240.77742     -9.8205992    
  18945000   302.44124     -3739.9034      1212.6026      177.25891      15.090864    
  18950000   303.91328     -3748.6416      1179.141       148.22265      30.613344    
  18955000   307.51375     -3780.3067      1220.3396      189.95308      15.313863    
  18960000   302.43771     -3791.9842      1174.3063      86.850209     -25.431448    
  18965000   300.77254     -3756.0231      1231.5124      165.12672      7.875433     
  18970000   300.62421     -3757.8508      1211.9198      142.38001     -8.9937397    
  18975000   297.6503      -3787.1373      1222.7976      97.377254      21.390998    
  18980000   298.58576     -3768.859       1208.0933      109.31654     -9.482424     
  18985000   298.97506     -3773.4759      1222.2912      122.37893      11.393369    
  18990000   301.13478     -3782.5356      1219.7532      130.09434      15.143102    
  18995000   301.09903     -3777.5425      1191.0293      106.04389      10.801308    
  19000000   299.02829     -3795.9298      1222.7489      100.85864     -13.744173    
  19005000   294.27779     -3777.1128      1162.8689      17.314632      11.563905    
  19010000   300.72462     -3789.2101      1216.5871      116.58587     -1.7082001    
  19015000   300.60542     -3798.9824      1225.6875      114.84805      30.279838    
  19020000   301.85727     -3802.2078      1216.2623      113.39209      11.020337    
  19025000   296.57548     -3749.666       1198.6729      101.11249     -26.388246    
  19030000   304.3889      -3768.2716      1206.0064      159.7112      -8.7126876    
  19035000   305.79511     -3788.3903      1181.9403      128.10138     -12.040802    
  19040000   296.40657     -3786.6653      1230.6376      94.567379     -7.7509908    
  19045000   292.27291     -3768.2383      1172.8986      18.290436      21.234835    
  19050000   303.58751     -3759.1997      1220.5808      176.19111      29.149047    
  19055000   298.63532     -3772.279       1176.5669      74.813344     -5.827896     
  19060000   303.61805     -3776.536       1238.8762      177.42344      13.51871     
  19065000   297.15028     -3812.5513      1249.0112      93.705589     -1.6858603    
  19070000   301.89504     -3761.4915      1185.253       123.43678     -21.653979    
  19075000   295.83815     -3762.4739      1263.1212      146.15936     -9.4697959    
  19080000   300.40857     -3753.5729      1219.9462      152.75603      8.1114149    
  19085000   301.36499     -3772.0324      1226.1437      149.04664     -8.2191897    
  19090000   298.12784     -3773.4305      1168.5208      61.077652      9.0206047    
  19095000   300.46117     -3752.7432      1214.3441      148.45393      4.7364355    
  19100000   298.39437     -3757.6553      1200.6921      111.40764      13.356757    
  19105000   299.11422     -3765.7821      1173.4191      82.44501      -3.0499524    
  19110000   305.36955     -3754.1519      1191.485       168.07897      19.07004     
  19115000   294.17508     -3766.2066      1144.0611      8.4945785      6.0352275    
  19120000   296.64477     -3757.9318      1227.438       122.23138     -12.085279    
  19125000   298.90478     -3779.5463      1221.4226      114.81138      15.080682    
  19130000   299.19447     -3753.8248      1164.7483      86.449093      21.167593    
  19135000   300.3291      -3750.1829      1152.5191      88.008202      22.599328    
  19140000   295.37006     -3749.6767      1186.7997      78.449125     -18.46861     
  19145000   302.01507     -3752.3624      1189.2831      137.66937      8.5322248    
  19150000   303.25507     -3749.907       1209.7569      171.6872       4.4369478    
  19155000   298.76514     -3739.895       1216.3112      148.10261     -5.2385315    
  19160000   307.00094     -3702.1944      1180.7886      223.92861      26.623435    
  19165000   304.69597     -3724.777       1237.6233      237.56869     -11.499233    
  19170000   296.11422     -3718.3274      1160.2671      89.92048      -2.4108048    
  19175000   298.67799     -3739.7406      1270.4796      201.64603     -26.513489    
  19180000   300.44585     -3766.0982      1156.9643      77.582086      9.3475984    
  19185000   294.95573     -3739.5306      1197.5847      95.675167      27.421734    
  19190000   297.49521     -3728.4732      1257.4         189.25698      17.021259    
  19195000   296.95567     -3741.394       1220.9626      135.07391     -14.300427    
  19200000   302.65584     -3746.8469      1201.061       160.69283     -10.902844    
  19205000   303.20295     -3758.7848      1187.8357      140.42205      13.124058    
  19210000   292.73861     -3736.3117      1197.637       79.119806     -14.277858    
  19215000   305.69426     -3750.515       1213.2794      196.41396     -20.310874    
  19220000   305.05944     -3735.4986      1217.6768      210.15088      1.4235676    
  19225000   303.66313     -3718.607       1217.6424      214.52169     -26.88166     
  19230000   299.33312     -3723.308       1235.4878      188.9453      -19.597168    
  19235000   291.43259     -3748.4558      1213.2042      70.863903     -20.891274    
  19240000   296.9022      -3719.0444      1208.1583      144.14109      1.9566815    
  19245000   299.51619     -3720.7794      1233.6125      191.23572     -4.2036032    
  19250000   297.42375     -3724.8032      1228.2251      163.11302      29.021357    
  19255000   296.45493     -3734.2623      1178.9139      95.679038     -9.0775353    
  19260000   299.30029     -3761.8079      1243.771       158.43512     -2.3876854    
  19265000   296.58063     -3755.921       1227.5589      123.7894       44.404458    
  19270000   303.60762     -3749.6819      1219.0277      184.33569      19.351979    
  19275000   296.56319     -3722.6564      1232.7262      162.0654       38.011835    
  19280000   295.61418     -3739.0062      1223.7151      128.21805      0.46503647   
  19285000   298.5091      -3704.8118      1134.506       99.090888      11.943101    
  19290000   295.04945     -3709.9494      1181.5054      110.01514     -1.1132333    
  19295000   306.96544     -3704.9511      1224.4375      264.50331      1.8253471    
  19300000   298.70847     -3708.7257      1187.9571      150.41106      12.02827     
  19305000   298.24917     -3674.3562      1245.054       237.77017      8.1112931    
  19310000   301.75977     -3696.0917      1176.1287      178.50274     -2.5204227    
  19315000   302.97579     -3711.2811      1164.7156      162.77429      27.8601      
  19320000   305.0239      -3694.3331      1208.5871      241.90894      19.50783     
  19325000   303.00826     -3708.6916      1210.2395      211.17806      14.949973    
  19330000   295.95505     -3694.9706      1204.6809      156.26769      23.402784    
  19335000   299.03831     -3701.5737      1230.9968      203.55224      7.777294     
  19340000   300.65231     -3707.9154      1227.135       207.78192      6.0090811    
  19345000   301.66743     -3677.3295      1224.9835      245.2939       44.000259    
  19350000   299.00304     -3700.92        1260.7107      233.60455     -15.07727     
  19355000   303.63638     -3705.5785      1229.6893      239.35784      2.656531     
  19360000   296.8287      -3678.5798      1190.0209      165.81101      20.193404    
  19365000   302.07836     -3722.4787      1217.565       196.40094     -4.0696502    
  19370000   300.12194     -3737.1309      1271.4505      218.13906      12.326885    
  19375000   302.3319      -3717.3162      1202.7952      189.06092      25.23128     
  19380000   297.79058     -3731.2198      1202.6214      134.3731       19.936581    
  19385000   297.20153     -3725.9384      1257.8893      189.6548       30.312183    
  19390000   297.07045     -3734.2167      1220.6125      142.92758      3.0625104    
  19395000   300.43222     -3700.4355      1186.9333      173.092       -14.059396    
  19400000   297.23912     -3690.6664      1220.6751      188.04881     -19.968929    
  19405000   297.20989     -3730.158       1213.0352      140.65588     -1.297524     
  19410000   302.29493     -3751.2233      1233.5323      185.56035     -24.168       
  19415000   297.08916     -3759.8572      1242.8193      139.66117      31.646403    
  19420000   309.16316     -3711.1063      1210.7172      264.28086     -18.802552    
  19425000   302.5911      -3697.5779      1247.0989      255.42084     -4.2032078    
  19430000   297.41451     -3720.2824      1224.1724      163.49845      31.721229    
  19435000   298.22536     -3708.0932      1197.4582      156.22446      7.4032497    
  19440000   301.53998     -3737.4297      1253.0851      212.15565      0.27193046   
  19445000   299.96403     -3705.1638      1235.0783      212.32179     -6.5776258    
  19450000   299.23156     -3732.1497      1198.9741      142.68168      9.4210163    
  19455000   311.74539     -3748.4803      1228.6599      267.94094      7.1219182    
  19460000   301.50678     -3715.7016      1159.0966      139.5984       8.8470752    
  19465000   306.56714     -3729.3807      1206.8416      218.91617     -13.057403    
  19470000   299.36928     -3730.1466      1175.1438      122.08607      1.6654849    
  19475000   296.54107     -3715.1412      1231.9758      168.63246     -9.4487423    
  19480000   295.80993     -3702.7085      1204.2371      146.78817     -25.312943    
  19485000   299.99332     -3715.7095      1282.5581      249.51793      45.27658     
  19490000   300.70502     -3715.8442      1199.5907      172.78013      7.4919913    
  19495000   296.60696     -3726.1733      1186.472       112.68564      2.4204051    
  19500000   298.47696     -3712.0905      1164.7615      121.78027     -8.6292552    
  19505000   300.19123     -3719.7134      1205.3851      170.11086     -1.5732928    
  19510000   314.57183     -3674.1277      1246.8179      385.72681     -3.6493458    
  19515000   302.23953     -3737.92        1182.6367      147.47253     -23.796963    
  19520000   305.54184     -3748.4152      1177.5866      161.45792      13.245006    
  19525000   300.74125     -3731.2861      1164.1906      122.26213      15.109487    
  19530000   299.37448     -3740.2941      1176.4413      113.28261     -3.6005161    
  19535000   297.03568     -3735.195       1242.5145      163.54026     -4.8168959    
  19540000   293.17155     -3730.1561      1223.5919      115.10194     -0.81932555   
  19545000   299.53819     -3765.3779      1240.3556      153.57697      16.280072    
  19550000   297.1706      -3750.8506      1160.5854      67.162176      2.7614334    
  19555000   299.65133     -3736.0218      1191.5606      135.14986      24.937113    
  19560000   299.127       -3751.4194      1212.8953      136.3981      -22.922868    
  19565000   306.7104      -3725.1573      1262.1283      279.7074      -4.7112403    
  19570000   307.54733     -3749.2568      1245.5377      246.50144      20.811579    
  19575000   298.67954     -3726.222       1212.3693      157.06825     -3.037236     
  19580000   309.60029     -3751.0685      1186.3332      203.84363      11.107167    
  19585000   300.96585     -3747.8133      1219.1703      162.72317     -15.801927    
  19590000   295.63154     -3724.113       1199.5054      119.05675     -26.29656     
  19595000   300.65078     -3736.0163      1239.2944      191.8267      -13.654974    
  19600000   303.83008     -3732.6899      1228.2252      212.51456     -20.883295    
  19605000   299.17765     -3739.719       1227.2092      162.86542     -5.7525272    
  19610000   297.83759     -3742.0474      1237.1484      158.49284     -5.334936     
  19615000   303.73109     -3729.3233      1167.1944      153.96507      27.668501    
  19620000   299.71377     -3732.8004      1161.6576      109.02664      11.280916    
  19625000   301.11828     -3716.3488      1224.4806      200.86099      18.253144    
  19630000   303.32183     -3735.4241      1213.6081      190.61825      27.893201    
  19635000   302.03042     -3695.3356      1150.6897      156.24001     -14.854072    
  19640000   298.38592     -3725.3369      1232.3012      175.25959      9.1327463    
  19645000   300.26848     -3714.9468      1260.1473      230.33035     -11.053385    
  19650000   303.40111     -3717.8436      1218.7037      214.00321     -0.97800589   
  19655000   306.99407     -3721.1803      1193.2166      217.30936     -20.706751    
  19660000   299.34789     -3695.308       1180.519       162.10861      6.1376506    
  19665000   298.74445     -3732.8907      1179.4942      118.10485      1.3651278    
  19670000   298.31823     -3692.5118      1250.8072      225.98529     -4.3706156    
  19675000   300.67742     -3646.1552      1184.1077      226.73937      3.9648122    
  19680000   299.28715     -3711.7144      1264.6597      229.29963      10.295527    
  19685000   297.76815     -3690.4037      1180.4924      152.85958      17.739014    
  19690000   294.12484     -3697.7081      1200.3187      132.80143     -23.914369    
  19695000   301.67996     -3707.1556      1175.3111      165.90745      31.727       
  19700000   301.76073     -3687.5383      1204.6233      215.55925     -9.3595447    
  19705000   297.00193     -3695.5028      1188.4396      148.85584      12.96175     
  19710000   305.55863     -3709.2565      1198.6575      221.83768      22.405964    
  19715000   294.18622     -3673.816       1204.9924      161.9162      -7.6950984    
  19720000   301.07218     -3717.6168      1223.5756      198.2757       0.36838671   
  19725000   301.05851     -3715.247       1198.7225      175.67016     -5.1608475    
  19730000   302.30097     -3721.7562      1246.183       227.73211      16.707631    
  19735000   306.43776     -3704.2636      1198.0071      234.04178      1.6554375    
  19740000   303.29361     -3687.0498      1223.4885      248.62065     -0.45682136   
  19745000   296.28085     -3678.517       1202.3632      173.31698      16.111912    
  19750000   304.1891      -3733.2934      1189.8622      176.75857      7.7227268    
  19755000   299.42412     -3705.1634      1221.1759      193.59179     -11.920544    
  19760000   295.16599     -3733.1013      1218.7464      125.14635      8.0834882    
  19765000   300.62924     -3686.9938      1203.8007      205.16284      21.161953    
  19770000   309.30024     -3689.2614      1213.8658      290.50016     -11.929579    
  19775000   305.86076     -3681.3401      1254.875       308.67341      18.400721    
  19780000   293.66057     -3668.1059      1200.1881      158.1213       21.007514    
  19785000   288.77156     -3690.0522      1246.6821      138.94934      18.612771    
  19790000   313.34271     -3729.4463      1239.2508      311.84972      18.707497    
  19795000   305.15999     -3702.1014      1212.9171      239.68765      4.8167179    
  19800000   302.33337     -3691.9176      1237.9925      249.66997      3.1988596    
  19805000   298.86706     -3700.7846      1193.8572      165.67043      16.06624     
  19810000   302.00579     -3681.3065      1210.936       230.29512      12.529286    
  19815000   304.4032      -3697.2458      1242.904       267.76256     -7.502739     
  19820000   296.76689     -3682.4975      1208.973       180.29273      23.721261    
  19825000   298.36539     -3680.9271      1170.957       158.14159      10.780537    
  19830000   292.60969     -3675.3616      1212.8109      154.09096     -9.723919     
  19835000   302.14755     -3706.3878      1245.8161      241.36166     -7.5758394    
  19840000   297.54099     -3720.7119      1260.2927      200.32034     -3.5458413    
  19845000   298.75851     -3710.8387      1242.1201      202.9085       14.29271     
  19850000   297.6056      -3703.5083      1183.9567      141.76569      15.414888    
  19855000   301.84943     -3699.3794      1199.7042      199.59233      25.772577    
  19860000   301.3597      -3668.7204      1249.2245      275.39212      5.4112427    
  19865000   305.8858      -3729.8714      1252.7938      258.28479      8.6683475    
  19870000   289.15983     -3729.3569      1180.2988      36.733518      3.354425     
  19875000   304.65291     -3730.769       1262.1655      255.73383     -14.664711    
  19880000   303.47039     -3751.2693      1184.2427      146.73616     -9.2052491    
  19885000   300.71092     -3729.1133      1225.2532      185.22626      7.415079     
  19890000   300.65372     -3749.4764      1187.7119      126.81039      14.990699    
  19895000   297.71407     -3743.7904      1225.2373      143.73424      21.268107    
  19900000   301.47214     -3756.8993      1185.3979      124.39222     -25.125225    
  19905000   308.90659     -3741.4352      1215.5917      236.53211     -5.9820748    
  19910000   299.9369      -3715.8896      1180.9716      147.24684     -15.543739    
  19915000   297.7238      -3729.4499      1245.5517      178.47605      14.580562    
  19920000   295.66627     -3738.576       1181.7906      87.189549      47.282662    
  19925000   297.7698      -3741.2592      1216.4968      138.02321      13.670751    
  19930000   304.81218     -3737.4125      1221.307       209.65604      1.1497139    
  19935000   296.69634     -3738.8919      1220.1509      134.44532     -15.520708    
  19940000   297.43185     -3731.6329      1263.4827      191.6134       10.087095    
  19945000   304.60348     -3728.1408      1231.5316      227.28611     -6.9028176    
  19950000   293.96404     -3759.8219      1185.4402      54.371211      25.825912    
  19955000   296.72524     -3760.1322      1254.445       147.7576      -5.9493026    
  19960000   299.48069     -3753.5564      1210.9123      135.44103     -1.8390538    
  19965000   299.26366     -3749.8599      1226.4843      152.76878      18.538691    
  19970000   296.47285     -3783.1303      1211.6669      79.724355     -7.2570603    
  19975000   300.36076     -3725.0745      1204.5285      165.40915     -0.91641816   
  19980000   294.46113     -3723.0931      1265.3001      175.40507      20.568728    
  19985000   298.80139     -3759.7567      1228.7392      140.99302     -8.3237433    
  19990000   301.55057     -3777.6638      1200.083       119.01405      10.652406    
  19995000   304.65661     -3727.3679      1180.3469      177.34942      4.8457306    
  20000000   298.12472     -3749.4467      1151.9065      68.419345      19.966439    
  20005000   295.9639      -3757.7883      1198.0254      86.873647     -5.9051249    
  20010000   309.03835     -3739.4213      1221.1163      245.24884      21.266248    
  20015000   301.26703     -3759.0703      1235.9043      170.89338      6.5992937    
  20020000   299.40635     -3716.7832      1155.6654      116.30262      5.0324571    
  20025000   302.87605     -3742.7864      1212.6468      178.30831      13.820896    
  20030000   304.08947     -3750.1303      1220.3543      189.52281     -22.292167    
  20035000   293.09005     -3768.0873      1245.7095      98.559452      11.540867    
  20040000   301.4799      -3771.8541      1216.4984      140.60721      1.71754      
  20045000   288.8427      -3735.5418      1179.2429      26.656762      19.008844    
  20050000   305.63421     -3760.3721      1245.6701      218.41048      17.67532     
  20055000   311.15978     -3757.6406      1198.1467      223.03073     -17.524714    
  20060000   301.47924     -3759.2696      1239.229       175.91648      33.411426    
  20065000   298.266       -3762.1929      1229.1696      134.19956     -1.4853901    
  20070000   297.96691     -3739.9818      1197.1858      121.75226      3.0920275    
  20075000   306.3887      -3779.1447      1229.5953      190.31012      1.9604715    
  20080000   298.81683     -3726.9145      1172.5181      117.75216     -16.852016    
  20085000   297.04319     -3736.4769      1206.7879      126.59893      9.7964999    
  20090000   292.8445      -3746.2971      1228.7585      101.20292      25.288553    
  20095000   303.21019     -3733.2142      1194.4599      172.68166     -13.560379    
  20100000   304.74701     -3734.6605      1232.3483      222.86667     -6.1462939    
  20105000   301.92739     -3756.0841      1228.2724      172.15289     -13.381679    
  20110000   304.36387     -3732.9961      1200.6783      189.43485     -7.0132481    
  20115000   309.29323     -3748.1746      1199.2854      216.9439      -14.751127    
  20120000   297.21407     -3716.2737      1171.594       113.13637     -9.862508     
  20125000   298.74873     -3721.8445      1224.4569      174.15204      14.801733    
  20130000   303.05231     -3718.0929      1243.2667      235.19799      12.07235     
  20135000   296.75177     -3714.6831      1264.1197      203.11861     -20.74691     
  20140000   296.98751     -3727.1922      1254.0512      182.64908      10.6982      
  20145000   297.41082     -3711.5698      1214.3166      162.32229     -20.490474    
  20150000   305.35552     -3738.4135      1199.1411      191.34797      20.99978     
  20155000   304.96545     -3730.0424      1229.9338      227.02371      28.530907    
  20160000   295.21329     -3738.4187      1183.4859      84.991446      12.764118    
  20165000   301.55845     -3703.6368      1258.8189      251.84745     -5.431603     
  20170000   310.03226     -3727.2342      1189.5859      234.79359     -12.841755    
  20175000   302.80154     -3675.8861      1257.5994      289.49498      13.9179      
  20180000   292.10814     -3700.7097      1183.2713      94.718194     -28.952457    
  20185000   301.20884     -3729.2746      1158.8608      123.12523     -12.391461    
  20190000   303.21134     -3723.8094      1223.4292      211.066        46.331146    
  20195000   310.7436      -3718.3626      1197.9007      258.34101      12.71556     
  20200000   304.46757     -3702.4343      1186.7228      206.96845      7.9969082    
  20205000   299.12361     -3722.6561      1200.9699      153.20573      17.670246    
  20210000   297.65362     -3728.861       1215.4501      148.33589      12.544997    
  20215000   302.0814      -3715.3612      1236.7997      222.78023     -7.3059747    
  20220000   295.95818     -3741.5974      1212.6069      117.59477      18.431318    
  20225000   298.11757     -3712.6326      1210.294       163.55689     -1.130058     
  20230000   290.98986     -3704.3179      1192.3473      90.185875     -9.6509492    
  20235000   291.21617     -3709.6269      1251.2783      145.83162     -12.103771    
  20240000   298.59174     -3709.4642      1206.4146      167.08614      1.9893054    
  20245000   302.7779      -3712.1583      1157.7692      153.18114      14.713121    
  20250000   299.24742     -3710.5034      1243.7006      209.19639      6.7539244    
  20255000   294.34728     -3736.555       1193.2067      88.83168      -5.2759984    
  20260000   299.44036     -3723.7912      1203.2404      157.17366     -3.0442253    
  20265000   296.77546     -3712.1635      1229.8148      171.54515      9.1685248    
  20270000   295.61614     -3711.8633      1241.8963      173.55968     -24.605656    
  20275000   302.32566     -3729.4756      1248.2965      222.34699      6.077759     
  20280000   303.3043      -3709.6662      1185.6762      188.28747     -18.396039    
  20285000   304.69897     -3717.289       1176.6366      184.09685     -1.6706578    
  20290000   300.84087     -3705.0319      1210.3256      195.54213      31.5769      
  20295000   307.12594     -3720.6711      1233.6463      259.4275      -13.233742    
  20300000   300.30391     -3707.2299      1213.2223      191.43918      32.437028    
  20305000   303.51839     -3708.1621      1187.6202      193.65005      1.1510813    
  20310000   299.90664     -3714.242       1229.3302      196.98237      10.387341    
  20315000   294.49656     -3752.5534      1195.016       75.977474      0.21724274   
  20320000   297.04045     -3723.6418      1207.7458      140.36754      22.130321    
  20325000   299.51498     -3728.239       1194.4038      144.55663     -2.3995047    
  20330000   299.34043     -3721.6255      1188.9559      144.16126     -19.191017    
  20335000   296.15029     -3702.8823      1197.312       142.73295      21.623424    
  20340000   301.91453     -3719.081       1206.3131      187.0817      -2.2942797    
  20345000   297.79532     -3714.1057      1193.9212      142.82936     -3.7080557    
  20350000   296.66903     -3710.4828      1246.7062      189.16545      7.1436516    
  20355000   298.86392     -3730.8869      1223.5137      165.19647     -14.403083    
  20360000   308.41989     -3716.7751      1305.4153      346.66353      11.902767    
  20365000   303.17022     -3692.4144      1202.6196      221.28375      13.582875    
  20370000   298.93203     -3719.7382      1207.952       161.39262      3.3538771    
  20375000   299.41273     -3702.5244      1193.994       168.94704      10.061427    
  20380000   300.12403     -3738.7592      1196.1304      141.20937      12.327231    
  20385000   304.38601     -3756.9666      1276.3655      241.34951      10.486409    
  20390000   302.63744     -3708.7222      1230.6985      228.29055      2.9243778    
  20395000   294.77085     -3755.5564      1265.5549      145.9663       2.3146432    
  20400000   295.55493     -3742.9924      1183.8857      83.872628      12.965117    
  20405000   300.64764     -3742.3955      1191.2464      137.37146      18.664231    
  20410000   296.98566     -3715.9641      1247.838       187.64736      21.364197    
  20415000   304.46399     -3689.3242      1195.6495      228.97334      15.169235    
  20420000   294.89612     -3706.1388      1178.7886      109.7377       43.673808    
  20425000   293.46188     -3700.4466      1204.5775      128.39325      6.2145885    
  20430000   297.81452     -3711.0671      1203.5879      155.70628      21.55552     
  20435000   295.94642     -3693.2362      1177.435       130.67892     -19.808421    
  20440000   298.66252     -3729.7338      1213.1087      154.14366      20.15451     
  20445000   304.55279     -3714.1284      1179.7475      189.0611       4.0196187    
  20450000   298.80866     -3720.4224      1198.8684      150.52154      1.6623896    
  20455000   299.65504     -3685.4537      1245.6219      239.81246      4.7692213    
  20460000   297.40825     -3704.1734      1219.3357      174.71476     -26.117523    
  20465000   297.62134     -3698.9902      1210.9866      173.45451      5.9424802    
  20470000   301.03658     -3681.0885      1225.1838      236.09392     -3.0799013    
  20475000   291.43426     -3693.6474      1183.0399      95.522942      6.9723241    
  20480000   294.67776     -3668.3086      1224.6121      191.43877      25.897512    
  20485000   304.75987     -3689.3363      1226.4042      262.36172     -15.610284    
  20490000   293.67076     -3691.2918      1220.2432      155.08161      5.8995426    
  20495000   311.80237     -3686.4165      1186.2847      288.13913      6.3656919    
  20500000   303.65703     -3705.9747      1214.368       223.82507      26.834602    
  20505000   305.04757     -3730.5625      1187.24        184.54409      12.476762    
  20510000   290.27939     -3724.0753      1236.3375      108.06534     -21.929963    
  20515000   307.13626     -3700.8364      1186.4581      232.16626     -10.689868    
  20520000   302.24959     -3692.4316      1230.2465      240.66075     -18.449025    
  20525000   295.82909     -3675.873       1224.3741      193.93213     -7.5177405    
  20530000   300.77755     -3692.0455      1167.5579      165.19458      39.29936     
  20535000   310.80282     -3691.9933      1251.5409      338.88014      2.2658644    
  20540000   294.82302     -3682.7826      1191.4578      145.1095       13.65282     
  20545000   292.56698     -3684.2644      1226.3087      158.30408     -6.645782     
  20550000   291.45998     -3705.5349      1210.3561      111.18182     -27.646641    
  20555000   294.11111     -3698.7054      1217.5512      148.9139       16.656419    
  20560000   301.37048     -3690.3629      1236.1794      240.80089      4.1352086    
  20565000   300.16896     -3679.1799      1204.326       209.38604      5.0585173    
  20570000   303.69886     -3680.9421      1235.2713      270.13504      26.261113    
  20575000   301.92643     -3698.8101      1242.677       243.82288     -1.5798035    
  20580000   297.22195     -3689.3952      1217.3679      185.85928     -1.4802938    
  20585000   302.39067     -3685.8261      1193.7867      212.06811      8.5661804    
  20590000   296.25043     -3708.9201      1219.3577      159.63633      15.692301    
  20595000   300.34024     -3695.0112      1213.5743      204.33472     -33.673663    
  20600000   302.0775      -3710.3285      1250.0775      241.05588      11.856136    
  20605000   303.59628     -3683.6837      1223.8577      255.06249     -4.8371628    
  20610000   300.61075     -3688.1314      1176.4406      176.4999      -11.822139    
  20615000   295.56522     -3732.8251      1288.4016      198.64781      10.547144    
  20620000   302.00649     -3694.754       1196.7946      202.71259      48.600794    
  20625000   302.57135     -3723.0683      1223.3398      205.9947       3.580085     
  20630000   299.81475     -3747.688       1210.0789      143.46333      19.237024    
  20635000   302.81957     -3688.3497      1217.6037      237.19688     -8.9518973    
  20640000   299.25011     -3718.1639      1173.9184      131.77769     -13.649013    
  20645000   301.79165     -3707.3269      1202.3         193.72385      3.9303742    
  20650000   303.08654     -3704.0491      1222.8695      229.15058      3.8248808    
  20655000   299.36494     -3699.7945      1177.8891      155.14465      1.3706913    
  20660000   298.57212     -3734.9675      1218.5449      153.53772      5.1006282    
  20665000   295.33136     -3701.2365      1192.1692      131.91271     -9.8737096    
  20670000   303.39251     -3707.5497      1186.5513      192.06785      13.531067    
  20675000   301.37478     -3701.6858      1235.9263      229.26345     -5.0806627    
  20680000   300.99065     -3700.9189      1233.321       223.98992     -4.7049546    
  20685000   297.05994     -3699.0409      1200.8595      158.25643     -7.6980681    
  20690000   304.02304     -3705.8965      1184.4201      197.22839      6.4509713    
  20695000   296.30747     -3688.7318      1171.8192      132.79629      26.778767    
  20700000   307.64126     -3702.8963      1206.6913      254.85549      20.895004    
  20705000   296.56247     -3680.2532      1195.7477      167.48361     -39.99575     
  20710000   297.88872     -3690.4469      1179.0298      152.43197      7.1776008    
  20715000   299.86004     -3710.2869      1221.3739      192.56444      25.602113    
  20720000   300.82344     -3694.5411      1185.2795      180.83106      5.5126635    
  20725000   290.14883     -3700.619       1174.6371      68.653745     -23.558652    
  20730000   299.36722     -3721.9216      1239.7529      194.90176      2.076998     
  20735000   296.68475     -3686.0809      1263.2269      230.22866     -15.596586    
  20740000   296.53121     -3700.5568      1210.1277      161.28052     -11.485938    
  20745000   296.84467     -3705.1836      1192.3953      141.72434     -11.892886    
  20750000   296.51971     -3729.2721      1205.0066      127.34128      25.679148    
  20755000   290.73088     -3729.8273      1199.7293      69.742606      12.936146    
  20760000   302.13527     -3718.1539      1233.1359      216.80554      12.322229    
  20765000   302.07362     -3721.0065      1247.535       227.8008       0.23838174   
  20770000   299.95324     -3721.3543      1226.6503      187.6069      -1.795884     
  20775000   304.62065     -3739.253       1225.9276      210.72347     -0.31900244   
  20780000   294.0145      -3680.5832      1238.7138      187.33478     -11.791625    
  20785000   300.5171      -3721.8744      1220.6423      186.12108      0.8981346    
  20790000   305.67437     -3712.1797      1223.7817      245.07366      15.195821    
  20795000   310.35193     -3671.9187      1219.3401      322.72184      0.47391594   
  20800000   291.96931     -3682.8596      1216.5328      144.58832     -38.439191    
  20805000   302.91046     -3677.6671      1238.3865      269.47503      19.004928    
  20810000   298.9498      -3669.6548      1245.4307      249.11364      17.537204    
  20815000   302.07554     -3669.5319      1238.4572      270.2147      -22.760165    
  20820000   299.0482      -3687.8201      1210.6844      197.08197      10.6677      
  20825000   294.30561     -3696.2308      1240.0521      175.62865     -15.565789    
  20830000   300.04254     -3678.2523      1211.7867      216.64384     -21.481372    
  20835000   300.14437     -3667.8753      1202.6512      218.79594      7.2566559    
  20840000   293.69106     -3690.5768      1226.1951      161.93009     -7.1849024    
  20845000   307.8958      -3668.4198      1232.8055      317.7223      -1.5752181    
  20850000   301.56151     -3698.5575      1178.3035      176.4387       4.7680015    
  20855000   303.52368     -3645.1749      1187.2815      256.34581      40.949837    
  20860000   304.30255     -3650.8135      1228.2157      298.60655      28.114188    
  20865000   297.95399     -3661.6168      1227.8336      230.64953     -16.209911    
  20870000   300.84443     -3657.5733      1201.6025      234.30949      12.741682    
  20875000   295.36001     -3650.0303      1201.6311      192.83708      0.78057968   
  20880000   304.90452     -3633.2367      1183.3332      276.68382     -2.5259986    
  20885000   296.25501     -3661.5507      1206.0989      193.78792      22.424668    
  20890000   304.908       -3657.1844      1228.8185      298.25261     -3.1640415    
  20895000   292.73161     -3623.3245      1221.1871      215.59467      3.3769786    
  20900000   302.43586     -3625.1809      1233.24        312.57064     -3.0043232    
  20905000   286.61618     -3648.6714      1253.5891      167.96277      13.200855    
  20910000   295.95893     -3652.4007      1176.519       170.71032     -1.4671524    
  20915000   300.36677     -3614.2045      1265.8182      337.62259     -20.998807    
  20920000   293.63293     -3637.4492      1229.9377      218.28048      5.3006538    
  20925000   296.94041     -3662.5496      1223.0576      215.87676      0.79251447   
  20930000   305.51443     -3605.8653      1261.3296      387.50569     -13.445661    
  20935000   295.51263     -3653.7785      1221.9866      210.80916      23.047112    
  20940000   294.84635     -3620.9505      1203.8812      219.57364      17.235368    
  20945000   296.04151     -3641.0797      1272.9897      279.24045     -16.678926    
  20950000   299.98864     -3637.2734      1198.1487      243.50278      2.3344826    
  20955000   295.73863     -3656.4052      1219.5592      207.77601      4.27324      
  20960000   297.40398     -3649.8958      1234.3941      244.01269      11.403378    
  20965000   299.56049     -3688.4438      1168.23        158.58498      3.4177627    
  20970000   299.63793     -3688.4368      1232.0211      223.07557     -3.7448297    
  20975000   301.26882     -3679.0447      1223.6352      238.66587     -4.2706967    
  20980000   297.0347      -3676.61        1198.8783      178.48034      9.1213829    
  20985000   298.91912     -3685.0846      1192.1101      180.08888      32.033787    
  20990000   303.31703     -3678.2451      1251.1975      285.34376      3.7505839    
  20995000   296.88858     -3668.5035      1168.3892      154.79109     -17.359859    
  21000000   305.96679     -3681.3142      1251.7291      306.5016      -10.838143    
  21005000   295.89694     -3694.6792      1185.0595      136.41807      8.8408624    
  21010000   306.28574     -3676.2372      1174.5178      237.21934      5.2826714    
  21015000   302.34756     -3675.7956      1220.7374      248.6637      -19.861486    
  21020000   306.64035     -3688.7992      1245.1576      298.46829      22.423644    
  21025000   305.7637      -3683.9959      1220.032       270.3067      -4.3420574    
  21030000   293.89992     -3699.285       1173.2496      102.14404     -10.671602    
  21035000   309.55428     -3690.6493      1177.9846      255.50273      20.472767    
  21040000   292.18935     -3707.69        1210.4822      115.67499      8.123278     
  21045000   298.74779     -3682.9775      1225.404       213.95774     -15.371659    
  21050000   300.82933     -3706.9498      1201.6255      184.82104      22.395847    
  21055000   298.70602     -3704.0658      1242.4643      209.5563       22.684997    
  21060000   305.78298     -3681.0967      1233.9966      287.34292      3.1625858    
  21065000   304.08498     -3678.4422      1179.9864      220.80293      1.698095     
  21070000   305.78873     -3712.335       1177.894       200.05325      19.264696    
  21075000   304.84332     -3685.588       1194.3742      234.82634     -1.6676825    
  21080000   300.93718     -3700.3087      1205.8431      196.64406     -41.131075    
  21085000   302.88124     -3699.2384      1232.2053      241.46128     -0.20631363   
  21090000   295.17128     -3685.8606      1205.8784      159.56641     -1.3847185    
  21095000   298.93691     -3687.4016      1222.7978      208.61863     -6.2057484    
  21100000   296.97607     -3673.3247      1197.4214      179.78449      11.379522    
  21105000   300.87675     -3693.897       1194.6394      191.31177     -10.41152     
  21110000   302.14721     -3694.4856      1198.782       206.22673     -3.368761     
  21115000   294.95093     -3691.7941      1204.9978      150.7818       8.4807474    
  21120000   292.06575     -3709.0632      1228.828       131.5424       1.7023227    
  21125000   306.95576     -3699.4712      1228.3645      273.82375     -35.098613    
  21130000   298.49188     -3665.6804      1202.5528      206.11515      11.100785    
  21135000   297.8732      -3648.8565      1183.4367      198.29046     -12.274935    
  21140000   300.2024      -3693.6683      1212.1823      203.05308     -28.548958    
  21145000   300.07942     -3720.1737      1195.3529      158.61839     -7.5992909    
  21150000   298.12155     -3727.3849      1252.0936      190.63981      6.0571364    
  21155000   299.76408     -3702.4344      1217.2437      195.42866     -12.111495    
  21160000   299.84193     -3692.7809      1204.6918      193.22647     -5.5232874    
  21165000   299.24037     -3685.24        1214.1759      204.87198      1.3600118    
  21170000   300.92108     -3678.4404      1241.2444      253.76973      1.9679989    
  21175000   300.69001     -3698.6604      1236.1235      226.36249     -4.5540844    
  21180000   297.89614     -3662.4484      1183.07        184.53713     -2.9953996    
  21185000   298.30491     -3661.8298      1242.0946      247.83563     -8.0629688    
  21190000   303.53804     -3661.8164      1169.8292      222.38043      4.4411616    
  21195000   296.54137     -3680.8851      1224.2112      195.12652     -2.6632758    
  21200000   300.32446     -3701.1068      1246.3916      230.91536     -20.22402     
  21205000   301.15573     -3706.3341      1189.4221      176.15215      1.9168723    
  21210000   302.23683     -3676.3913      1232.9408      259.28119      4.7230272    
  21215000   291.0334      -3685.7526      1195.0281      111.82139      11.723917    
  21220000   306.0392      -3710.6411      1192.455       218.54812      10.425054    
  21225000   294.37526     -3701.4886      1285.8217      216.76323     -4.4536963    
  21230000   300.55067     -3692.4134      1219.955       215.19506     -2.9957468    
  21235000   301.733       -3673.9299      1210.7242      235.02061     -3.7071097    
  21240000   304.90105     -3662.2518      1228.1683      292.47276     -3.9638606    
  21245000   293.22546     -3694.2524      1198.3414      126.23716      23.324025    
  21250000   308.92735     -3656.5384      1248.43        354.45289     -0.25891376   
  21255000   295.12293     -3697.6149      1210.3321      151.83341     -29.96182     
  21260000   304.74781     -3688.9081      1191.3823      227.66022     -0.017235588  
  21265000   294.96495     -3658.5141      1187.9118      167.10115      25.450354    
  21270000   302.81259     -3660.0092      1209.1251      256.99628     -7.3171695    
  21275000   295.22109     -3679.9012      1235.4485      195.5412       14.99065     
  21280000   299.39611     -3680.0926      1220.0541      217.29029     -13.030835    
  21285000   298.68993     -3686.1929      1221.4317      206.25264     -15.849331    
  21290000   298.67667     -3676.5771      1179.6245      173.94272      19.142779    
  21295000   298.87542     -3689.0054      1216.6661      200.33328     -9.2233793    
  21300000   302.28972     -3686.8524      1226.0766      242.429       -17.182773    
  21305000   297.90812     -3698.5447      1206.1835      171.66134     -13.798402    
  21310000   308.34586     -3699.627       1226.8131      284.54741      4.1495123    
  21315000   304.69795     -3684.3012      1202.0497      242.48861      1.5749716    
  21320000   297.5698      -3675.1171      1227.1133      212.99339     -17.116146    
  21325000   299.78674     -3679.1071      1218.4133      220.1282      -14.191078    
  21330000   303.64193     -3689.5881      1197.0828      222.79144     -4.3081888    
  21335000   301.96503     -3700.9667      1217.4679      216.80242      4.7644723    
  21340000   294.32378     -3680.5897      1244.617       195.99707     -15.54575     
  21345000   308.36676     -3669.8956      1192.9447      280.59729      17.111492    
  21350000   293.17814     -3649.9883      1183.0592      154.79596      14.245335    
  21355000   294.9773      -3692.786       1244.373       189.40093     -12.497947    
  21360000   300.96763     -3706.4655      1196.9623      181.87887     -9.6524885    
  21365000   292.706       -3724.9755      1189.7132      82.240671     -16.353746    
  21370000   300.64577     -3713.3223      1183.0562      158.23768     -10.117461    
  21375000   294.20796     -3712.0864      1200.573       119.42081      9.2654282    
  21380000   298.7478      -3738.2379      1205.1559      138.44941      8.2472054    
  21385000   302.4804      -3735.7361      1193.9884      163.16227      12.494937    
  21390000   297.01556     -3743.4266      1204.3897      117.00396      10.105106    
  21395000   295.27231     -3726.8212      1214.4076      128.03848      12.162048    
  21400000   299.01966     -3727.933       1223.8674      169.8968       22.528463    
  21405000   293.79603     -3726.1404      1261.4823      162.59238      3.7331769    
  21410000   304.06925     -3692.9937      1179.6974      205.8217       2.7185444    
  21415000   296.59133     -3758.5412      1217.1479      110.85394      15.409696    
  21420000   289.83262     -3733.3736      1216.0985      74.532828     -1.4843625    
  21425000   303.01326     -3744.2749      1233.2447      198.64473      11.795949    
  21430000   298.08506     -3748.039       1252.9456      170.51153     -9.6855278    
  21435000   298.28629     -3748.1852      1175.4137      94.632847     -12.836716    
  21440000   303.77806     -3749.829       1159.2523      125.93745     -2.3239434    
  21445000   295.25589     -3759.5413      1170.2536      51.017519     -11.093497    
  21450000   306.36829     -3752.688       1209.3531      196.34217      26.392592    
  21455000   295.75318     -3768.1301      1251.1956      127.81756      31.566601    
  21460000   296.86795     -3738.4472      1234.4037      150.67739      32.351115    
  21465000   310.87507     -3756.1019      1208.3061      232.18284     -1.5677448    
  21470000   305.90016     -3784.9918      1243.3601      193.85918     -2.0949375    
  21475000   298.81616     -3764.9677      1248.7         155.87499     -8.7909591    
  21480000   301.50633     -3773.767       1200.6888      123.12109     -13.163112    
  21485000   304.02716     -3798.8822      1245.7086      165.56797      15.449363    
  21490000   295.88423     -3779.0611      1213.4957      80.358612      14.447177    
  21495000   300.42084     -3760.0911      1211.3435      137.74478     -7.0094099    
  21500000   291.04544     -3790.564       1244.2143      56.303728     -6.4638195    
  21505000   305.57091     -3769.387       1212.4768      175.6363      -14.320069    
  21510000   307.95932     -3798.6132      1198.0268      153.31838      11.746022    
  21515000   298.44451     -3814.72        1196.7306      50.829766      13.356039    
  21520000   301.59412     -3830.0486      1192.58        59.515796      2.9754292    
  21525000   298.09865     -3794.9748      1216.1711      86.922693     -19.765281    
  21530000   306.35932     -3794.457       1213.6626      158.80235      17.955639    
  21535000   300.99011     -3810.6978      1200.0412      80.926405      0.14678254   
  21540000   295.26704     -3802.3266      1240.0451      78.123336     -21.628633    
  21545000   301.93664     -3835.9455      1212.7929      76.894678     -3.787452     
  21550000   302.94153     -3823.5075      1212.8156      98.341605      5.1081832    
  21555000   295.99995     -3829.6852      1272.316       89.589592     -9.6966515    
  21560000   306.22645     -3836.7972      1235.4859      137.09732     -7.5610719    
  21565000   298.29035     -3832.1509      1235.4443      70.73399       1.015578     
  21570000   295.43945     -3872.2399      1160.0923     -70.200907     -4.252273     
  21575000   295.11123     -3847.2455      1216.0393      7.8053936      4.7253635    
  21580000   300.48343     -3813.3586      1155.4784      29.171914      3.3200867    
  21585000   305.63595     -3786.1406      1201.8108      148.79837     -18.709565    
  21590000   301.70083     -3817.8088      1165.2949      45.424745     -9.8406213    
  21595000   304.25996     -3780.0188      1215.6602      156.46492     -15.952678    
  21600000   295.65086     -3819.7512      1218.6475      42.733431      7.2662234    
  21605000   299.20873     -3811.2308      1199.3467      63.769053      17.442953    
  21610000   298.77757     -3779.5404      1223.8634      116.12056     -10.798967    
  21615000   303.02033     -3770.0904      1185.136       124.78379      4.4575805    
  21620000   303.08032     -3769.2887      1227.1907      168.17653     -5.3029621    
  21625000   311.53271     -3810.6036      1166.2922      141.54814      12.707598    
  21630000   293.53975     -3776.4098      1175.6499      24.19876       28.802595    
  21635000   299.68485     -3807.9374      1174.6844      46.657837      15.232905    
  21640000   296.2784      -3798.6337      1244.5874      95.402659     -0.63331322   
  21645000   299.56668     -3819.9535      1243.5855      102.48612      24.618869    
  21650000   301.1562      -3795.5889      1198.4074      95.886807      2.2667366    
  21655000   296.33166     -3800.2553      1171.9888      21.658652     -29.745624    
  21660000   298.31944     -3801.6617      1215.4181      81.457172     -5.4251998    
  21665000   301.88242     -3801.3202      1241.3922      139.63449      24.015239    
  21670000   304.07049     -3817.9726      1214.3224      115.47884      23.99929     
  21675000   307.398       -3794.4448      1211.6802      166.12042     -17.154786    
  21680000   291.84919     -3789.8425      1192.3902      12.388751     -23.716697    
  21685000   291.70427     -3777.9221      1225.1474      55.770423     -10.714805    
  21690000   303.7395      -3791.2601      1290.8094      215.71858     -8.6636694    
  21695000   312.45476     -3749.826       1133.5411      177.82        -5.2153844    
  21700000   297.53438     -3801.9684      1197.1886      55.900705      23.684598    
  21705000   294.65537     -3785.3524      1163.3144      12.897107      10.012814    
  21710000   303.07625     -3769.1679      1237.9331      179.00344      2.4293272    
  21715000   306.63829     -3799.2138      1212.2331      155.11069     -2.7219771    
  21720000   305.74771     -3795.5457      1176.0835      114.66541      15.931612    
  21725000   302.93218     -3774.0591      1226.9791      161.86976      3.2351678    
  21730000   298.82354     -3788.2188      1201.2929      85.28265      -14.050181    
  21735000   298.83032     -3790.6468      1198.8597      80.482182      5.1046207    
  21740000   299.95904     -3764.9983      1228.968       146.33245     -3.3527836    
  21745000   299.31525     -3795.391       1206.5496      87.764265      19.528355    
  21750000   291.71532     -3791.8131      1173.7569     -9.4122822     -17.950207    
  21755000   301.72731     -3792.5723      1165.4086      71.011655      7.4716454    
  21760000   303.02496     -3819.2139      1251.6618      142.22742      16.240862    
  21765000   300.56744     -3808.31        1199.1933      78.686676      15.793417    
  21770000   299.86397     -3801.2534      1198.6538      78.913079      22.708446    
  21775000   297.37376     -3814.7128      1214.8159      59.347174      15.701852    
  21780000   294.61091     -3811.0008      1201.1537      24.690294     -1.8461672    
  21785000   300.22918     -3820.1637      1220.1615      84.77628      -0.4097261    
  21790000   298.69717     -3852.3624      1182.9707      1.6869488      18.253289    
  21795000   303.22376     -3790.797       1177.3666      98.126862      14.568697    
  21800000   291.64026     -3819.4374      1198.554      -12.910831      6.4996102    
  21805000   296.37075     -3854.7268      1235.3954      30.943309     -3.5561363    
  21810000   301.99497     -3823.2154      1138.6531      16.006664      16.828965    
  21815000   298.73374     -3829.1629      1198.5545      40.797323     -23.670037    
  21820000   301.76492     -3810.3957      1190.4364      78.552451      26.566584    
  21825000   302.95875     -3806.9097      1197.6436      99.921315     -17.604047    
  21830000   306.48301     -3806.8032      1197.0008      130.90052     -6.7963258    
  21835000   298.81637     -3832.1908      1269.4823      109.43603      3.8045076    
  21840000   300.94843     -3807.8214      1240.6233      124.01222      11.892497    
  21845000   290.00343     -3835.0786      1203.7378     -38.00537      -9.6179041    
  21850000   303.52077     -3826.8888      1210.4508      97.775212     -4.3702332    
  21855000   297.71387     -3815.2921      1181.083       28.0764       -6.392756     
  21860000   293.85196     -3821.1232      1158.5777     -34.794766      18.479817    
  21865000   307.71944     -3821.2556      1200.7413      131.24526      26.327275    
  21870000   307.7527      -3800.9556      1189.1237      140.22515      17.677603    
  21875000   306.53686     -3858.0435      1188.2449      71.385896      5.7568557    
  21880000   297.01704     -3840.8968      1164.9502     -19.892443     -7.4465468    
  21885000   308.1601      -3834.8354      1215.6412      136.50605     -0.091129817  
  21890000   298.39135     -3839.8225      1184.1301      12.651485      25.117918    
  21895000   302.03227     -3826.7572      1220.1383      94.283603      0.47652159   
  21900000   295.40153     -3837.1429      1190.9971     -4.538216      -27.210635    
  21905000   298.24362     -3832.9028      1213.2478      47.367753      6.3677314    
  21910000   301.20753     -3859.2402      1237.0625      71.349632      4.4320144    
  21915000   295.08498     -3836.9684      1207.2757      9.0842286      14.154752    
  21920000   303.66729     -3823.9431      1212.5125      104.09289     -3.4740864    
  21925000   302.28851     -3841.6878      1172.1549      33.660884      14.209746    
  21930000   294.97878     -3847.9423      1216.5764      6.4612697      1.5266861    
  21935000   298.64014     -3819.629       1206.3372      57.276777      12.223208    
  21940000   293.37591     -3832.1446      1185.7945     -22.856531      18.214786    
  21945000   304.26351     -3804.4859      1221.9709      138.34017      1.9384566    
  21950000   298.51242     -3825.8855      1217.7935      61.334456     -9.2096735    
  21955000   303.37011     -3809.6603      1225.026       128.23165      11.732141    
  21960000   300.54216     -3806.9297      1232.6233      113.27076      0.73013907   
  21965000   304.31394     -3759.7036      1271.912       233.5146       6.808327     
  21970000   304.81921     -3794.2257      1202.1961      133.79485     -8.1783143    
  21975000   299.18044     -3857.5892      1221.6953      39.506188     -27.863869    
  21980000   295.24301     -3804.9598      1199.3787      34.60887       26.200877    
  21985000   299.3991      -3826.8484      1199.8909      50.397955     -1.4024262    
  21990000   299.79515     -3815.4253      1220.7601      86.232037     -15.737777    
  21995000   298.08156     -3807.5461      1247.7246      105.752        18.434478    
  22000000   297.96285     -3814.7938      1236.8689      86.587087      12.904837    
  22005000   296.68496     -3801.8012      1278.5268      129.81012     -22.918816    
  22010000   297.4769      -3802.7451      1161.0165      18.437698     -2.5472584    
  22015000   299.02738     -3846.5476      1182.5199      10.00371      -8.5376831    
  22020000   301.14828     -3823.2782      1207.086       76.805205     -14.161294    
  22025000   301.74492     -3815.4815      1216.884       99.73538      -14.734788    
  22030000   298.99593     -3836.8344      1207.2566      44.172474      16.09851     
  22035000   300.18302     -3798.6517      1199.3453      85.059389      4.8608916    
  22040000   298.16943     -3807.5572      1178.4741      37.276258      25.877296    
  22045000   302.90527     -3805.6659      1188.2846      91.327918     -4.1905567    
  22050000   301.31114     -3835.7225      1187.351       46.082344      8.0915938    
  22055000   301.61013     -3806.7197      1168.6839      59.091701     -20.529245    
  22060000   298.74942     -3822.9042      1184.2624      32.904008      32.899203    
  22065000   299.07235     -3801.6898      1206.4515      79.195313      33.375565    
  22070000   306.04832     -3811.1789      1250.5738      176.21067      5.3940552    
  22075000   307.91139     -3810.4626      1192.1645      135.17801      7.9803659    
  22080000   299.56619     -3812.3517      1212.1619      78.659943     -16.592308    
  22085000   299.13606     -3764.7378      1268.3436      178.60914      1.8184215    
  22090000   300.47404     -3820.5037      1153.2701      19.734468      27.528575    
  22095000   293.77386     -3807.9571      1190.6456      9.7408013      6.8649931    
  22100000   304.19246     -3833.4671      1203.6129      90.365601      4.8464024    
  22105000   304.54363     -3829.7704      1185.1327      78.722476      27.300881    
  22110000   299.75941     -3840.5945      1189.161       29.144113     -4.5908557    
  22115000   294.38618     -3815.6434      1233.7444      50.628864     -7.3423331    
  22120000   297.32262     -3802.8602      1208.3556      64.282173      33.208589    
  22125000   301.66743     -3809.4276      1223.1949      111.4073       5.5336584    
  22130000   307.4259      -3775.398       1234.7506      208.48716     -24.445768    
  22135000   299.03587     -3831.5631      1180.6829      23.227207      10.361834    
  22140000   288.66869     -3809.9915      1175.8651     -52.726904      12.926377    
  22145000   307.89726     -3818.3956      1162.6037      97.557832     -14.680587    
  22150000   302.61929     -3818.5685      1205.4965      93.079883      19.9642      
  22155000   293.78777     -3792.4804      1208.2414      42.937643      11.263555    
  22160000   300.61256     -3789.9483      1144.1432      42.401713      22.121525    
  22165000   301.17408     -3833.2347      1217.3479      77.341453     -23.740722    
  22170000   300.3865      -3796.935       1256.1194      145.36965      11.541968    
  22175000   300.91223     -3814.2184      1244.0933      120.76145     -0.077595776  
  22180000   300.78119     -3799.5685      1200.4657      90.611986      22.240183    
  22185000   299.87028     -3819.5784      1169.7593      31.750032     -13.105885    
  22190000   293.7778      -3814.6806      1166.0989     -21.49425      -3.6373907    
  22195000   300.80057     -3812.7132      1197.9964      75.171303     -0.71390745   
  22200000   303.96493     -3848.0062      1228.9771      99.156069      24.494646    
  22205000   304.41362     -3816.3301      1245.2226      151.08999     -11.62283     
  22210000   299.96098     -3810.1357      1171.046       43.290452      4.9657124    
  22215000   301.3083      -3827.4665      1177.7005      44.662433     -30.743634    
  22220000   296.5446      -3808.8646      1230.9101      73.874765      16.409065    
  22225000   294.29737     -3768.3082      1194.8354      58.260831      21.653369    
  22230000   301.39812     -3800.2046      1186.5099      81.536907     -7.8374801    
  22235000   305.84134     -3785.221       1181.6203      131.3641      -4.5812009    
  22240000   300.77956     -3773.0551      1190.7079      107.35303      3.5415871    
  22245000   302.05766     -3802.9554      1209.5673      107.74147      12.83742     
  22250000   304.26089     -3795.8519      1240.1274      165.10729      16.400343    
  22255000   295.98575     -3801.136       1219.9647      65.660612     -20.483397    
  22260000   310.04844     -3805.9257      1199.6881      166.34892     -1.0255146    
  22265000   301.24045     -3782.8335      1207.8567      118.84482     -1.5974339    
  22270000   295.92345     -3777.006       1212.0042      81.272967     -2.8657482    
  22275000   297.80799     -3783.5471      1200.9272      80.507251     -8.4337798    
  22280000   295.93638     -3800.008       1182.374       28.756417     -4.2996854    
  22285000   296.62568     -3790.8537      1189.1848      50.88546       7.609652     
  22290000   303.99222     -3806.0514      1237.6435      150.02131      4.4860146    
  22295000   297.5682      -3762.6807      1223.7809      122.08305     -8.9382726    
  22300000   291.39319     -3745.7662      1195.4875      55.484574      34.307524    
  22305000   302.31181     -3792.2315      1234.7339      145.90472      24.241814    
  22310000   302.91554     -3776.6482      1194.8453      126.99823     -0.075244998  
  22315000   302.74762     -3771.3163      1188.78        124.7631      -2.0095849    
  22320000   289.73628     -3772.9305      1236.996       55.011941      10.009499    
  22325000   295.01138     -3779.1236      1202.5833      61.57839      -17.877983    
  22330000   300.30449     -3779.0345      1215.6961      122.11356      14.059869    
  22335000   304.84741     -3765.617       1187.0382      147.49787     -1.1063426    
  22340000   312.67299     -3778.0785      1198.4654      216.4432      -20.419943    
  22345000   298.18007     -3775.9253      1274.2208      164.7499       8.8158633    
  22350000   298.03163     -3754.7604      1163.9826      74.34923       3.0349068    
  22355000   297.6244      -3788.1497      1239.8279      113.16358     -14.0347      
  22360000   302.82727     -3767.486       1232.9532      173.47891      1.6058483    
  22365000   295.77699     -3765.9944      1226.3899      105.36057     -5.8051967    
  22370000   303.44846     -3728.7143      1200.9304      185.7828       7.8748908    
  22375000   299.30309     -3732.9981      1223.9979      167.49681     -18.11397     
  22380000   302.06588     -3768.7459      1226.3357      158.79288      18.030933    
  22385000   308.263       -3744.5768      1166.2016      178.24514      16.974186    
  22390000   297.59779     -3699.8685      1205.6505      167.02948     -4.697923     
  22395000   295.08764     -3764.3506      1189.6369      64.086938      7.074828     
  22400000   297.1369      -3744.474       1192.7835      105.43544      23.011651    
  22405000   297.97946     -3762.7868      1212.3344      114.2081      -27.408914    
  22410000   298.93422     -3772.4433      1271.8535      172.60849     -1.0103448    
  22415000   298.17129     -3756.1835      1195.015       105.20737     -3.2158883    
  22420000   293.14846     -3735.0429      1162.4342      48.850955      11.726229    
  22425000   302.40018     -3735.3993      1263.3818      232.17502     -10.766335    
  22430000   303.58148     -3707.0796      1249.697       257.37364      17.481208    
  22435000   295.03664     -3714.4903      1178.2371      102.09143      8.0193595    
  22440000   298.96495     -3700.7752      1303.4523      276.15031     -3.4466055    
  22445000   299.47425     -3717.9213      1254.9965      215.10279      2.971327     
  22450000   303.70852     -3712.8686      1233.5707      236.5943       3.9906081    
  22455000   300.18164     -3701.1742      1202.3097      185.48887      4.1116289    
  22460000   302.15531     -3724.0111      1198.5536      176.5453       11.132702    
  22465000   296.07214     -3725.554       1199.856       121.90645      4.123633     
  22470000   307.82572     -3724.3531      1204.7604      233.11731     -8.4210854    
  22475000   302.13493     -3742.6417      1185.5888      144.76756      2.5039978    
  22480000   303.73394     -3748.9468      1234.6713      201.84402     -11.511704    
  22485000   302.48353     -3753.8844      1213.6448      164.69826      7.3933784    
  22490000   301.2063      -3725.1206      1232.2577      200.65335     -2.4566364    
  22495000   291.10021     -3747.2157      1212.8878      68.81537       15.961212    
  22500000   304.18257     -3700.2636      1203.7805      223.64821     -10.134306    
  22505000   301.72934     -3721.9632      1182.3944      158.62465      6.4077564    
  22510000   302.65098     -3729.8605      1185.1428      161.71748      13.404309    
  22515000   297.06226     -3743.0137      1218.6622      132.10701     -11.445672    
  22520000   295.69276     -3729.496       1221.4975      136.21326      13.423299    
  22525000   294.67028     -3706.6081      1187.8093      116.26963     -4.1099292    
  22530000   297.56015     -3766.7414      1224.2926      118.46204      5.2411746    
  22535000   304.21679     -3707.1236      1227.1249      240.43871     -7.1491725    
  22540000   296.34976     -3719.7436      1237.5276      167.87105     -1.9797715    
  22545000   307.89325     -3688.1405      1173.4839      238.65727      8.4809792    
  22550000   296.08916     -3754.3645      1219.8607      113.25278     -8.0199423    
  22555000   301.86393     -3727.2016      1210.4442      182.63964      39.936837    
  22560000   291.32629     -3748.5583      1198.9417      55.548407     -13.879594    
  22565000   305.4419      -3711.6125      1210.6969      230.47721      9.0595521    
  22570000   299.36263     -3705.386       1220.9632      192.60658     -0.11119341   
  22575000   305.07379     -3667.3455      1200.5384      261.29406     -27.310291    
  22580000   299.45156     -3714.4983      1216.6783      180.00469      34.706618    
  22585000   291.33165     -3695.5176      1218.7843      128.47966      16.268638    
  22590000   302.94766     -3676.6587      1201.2327      233.66229      6.1851056    
  22595000   307.63284     -3713.731       1196.3213      233.57549     -1.3561912    
  22600000   303.89819     -3646.4894      1194.1717      265.27058      14.882594    
  22605000   301.25191     -3675.7073      1192.3896      210.60654      10.812583    
  22610000   305.01452     -3701.5547      1220.8957      246.912        3.3104784    
  22615000   299.25408     -3711.4096      1254.0765      218.72558     -4.5394562    
  22620000   302.86366     -3708.1495      1175.657       175.84467     -22.977979    
  22625000   299.10231     -3726.3404      1195.0774      143.43852     -6.7197001    
  22630000   302.05676     -3686.4253      1212.2524      226.94858      7.6105344    
  22635000   297.1907      -3709.7095      1209.953       157.8506       22.607396    
  22640000   296.68838     -3715.3269      1217.3096      155.09778      40.414174    
  22645000   296.0953      -3712.46        1262.8548      198.20637     -4.8559665    
  22650000   302.28457     -3732.9809      1190.5024      160.6801       2.5926268    
  22655000   302.02083     -3733.27        1193.7841      161.31426      5.33501      
  22660000   288.92112     -3723.2165      1193.7757      54.216059      1.9188457    
  22665000   307.56526     -3735.9725      1268.5125      282.92079      14.476192    
  22670000   295.4782      -3739.3679      1204.6438      107.56908     -4.2207314    
  22675000   307.10818     -3727.5585      1207.2707      226.00566      19.604923    
  22680000   301.87524     -3725.8041      1176.75        150.44424      7.8856345    
  22685000   304.46806     -3741.2548      1178.9287      160.35824      19.894277    
  22690000   297.84836     -3760.9035      1175.5569      78.141547     -0.82383852   
  22695000   294.41806     -3772.3875      1220.5172      80.942722      19.608887    
  22700000   307.40596     -3758.1728      1248.9988      239.78226      22.830264    
  22705000   302.84155     -3777.5345      1216.4622      147.06717      5.1639209    
  22710000   294.76335     -3747.8756      1174.8112      62.836299      11.094629    
  22715000   300.76668     -3749.1902      1243.7859      184.18067      10.441412    
  22720000   291.94979     -3758.1588      1208.0573      60.639132     -17.478253    
  22725000   295.69386     -3786.6539      1199.5257      57.093537      18.595462    
  22730000   295.20845     -3763.2039      1253.5491      130.22608      27.541131    
  22735000   302.38086     -3746.4589      1220.9418      178.50258      18.926053    
  22740000   298.24623     -3758.0239      1150.0404      59.062635     -11.379176    
  22745000   302.2909      -3722.4078      1275.347       256.15444      2.2767616    
  22750000   297.26041     -3751.213       1193.5341      100.55165      15.875219    
  22755000   304.93237     -3780.1787      1246.8639      193.52163      22.154568    
  22760000   292.03348     -3748.1928      1224.9491      88.245424     -26.277801    
  22765000   299.49582     -3763.0753      1235.1265      150.2717      -7.1788599    
  22770000   303.32615     -3770.5153      1216.7657      158.72332      11.606339    
  22775000   306.0031      -3795.9431      1259.1916      199.6598       13.922478    
  22780000   298.26817     -3748.8185      1240.6962      159.1199       28.50137     
  22785000   298.62862     -3768.2687      1202.7607      104.95757     -7.9242844    
  22790000   309.03404     -3759.9234      1233.5099      237.1018       5.1971532    
  22795000   292.90402     -3774.7714      1266.8984      111.40069      13.267119    
  22800000   302.45526     -3756.1234      1173.5031      122.06469      20.590646    
  22805000   303.56923     -3736.6794      1229.7668      207.73398      7.4410215    
  22810000   297.44679     -3730.2586      1204.9519      134.5904       7.5278756    
  22815000   294.82208     -3746.0209      1167.5016      57.906566     -19.759203    
  22820000   300.1422      -3732.5292      1213.9796      165.45114      13.816659    
  22825000   301.16977     -3742.8587      1221.4977      171.8286       2.920476     
  22830000   293.80747     -3761.8237      1198.0159      63.545032      30.424985    
  22835000   302.81587     -3744.5841      1151.1884      114.51404     -9.1260686    
  22840000   293.80251     -3739.5853      1230.6506      118.37371     -24.842585    
  22845000   302.94621     -3718.07        1169.4812      160.48658     -10.501434    
  22850000   295.46947     -3715.5446      1163.2171      89.887579      5.0786963    
  22855000   301.9091      -3727.9231      1229.5003      201.37823      11.196994    
  22860000   301.93438     -3727.4259      1187.2531      159.85431      1.4561868    
  22865000   307.56073     -3723.0805      1193.7848      221.04457      3.3986732    
  22870000   294.27676     -3705.1834      1209.0513      135.41721      14.420111    
  22875000   295.67505     -3689.6496      1229.0291      183.43298     -8.8396202    
  22880000   297.84392     -3700.6155      1191.2402      154.07319      4.2650569    
  22885000   299.87445     -3709.9606      1198.7516      170.39726     -2.592666     
  22890000   302.25203     -3705.3316      1211.6769      209.21295      49.835641    
  22895000   299.19832     -3738.2488      1238.8556      176.16682     -4.0613118    
  22900000   300.20806     -3705.094       1191.6113      171.10683     -4.4241655    
  22905000   293.61315     -3709.4114      1244.6083      160.81193      16.108314    
  22910000   302.1438      -3679.5625      1216.4627      238.80002      12.577581    
  22915000   304.69344     -3695.2653      1218.6183      248.05281     -38.459921    
  22920000   297.40768     -3665.1786      1215.4722      209.84097      17.87442     
  22925000   303.61577     -3734.254       1218.0645      198.8733       5.1765817    
  22930000   297.79676     -3712.1706      1207.4736      158.32978      11.77104     
  22935000   299.69678     -3756.2637      1231.2842      155.03793     -3.2286185    
  22940000   295.60429     -3710.4947      1193.6205      126.54651     -14.496296    
  22945000   302.27967     -3713.4973      1195.0986      184.71605     -20.161016    
  22950000   301.64099     -3755.3929      1206.7203      148.73078     -4.3217643    
  22955000   298.3943      -3733.022       1222.8921      158.24034      5.532238     
  22960000   302.52358     -3692.9727      1230.5065      242.82972      25.084005    
  22965000   292.45514     -3737.9677      1234.9683      112.26026     -5.7601112    
  22970000   296.28188     -3715.2399      1181.4887      115.72872      11.128855    
  22975000   293.58208     -3708.2192      1217.4877      134.60568      9.5390263    
  22980000   301.63572     -3741.968       1248.3183      203.70677      17.347382    
  22985000   307.7835      -3699.5447      1196.1021      248.88984     -2.9126329    
  22990000   301.81496     -3682.9099      1207.6148      223.6642      -6.2115539    
  22995000   302.67385     -3702.622       1230.9376      234.95539     -9.7703424    
  23000000   307.61836     -3714.7988      1223.1783      259.23517      2.3316603    
  23005000   305.40082     -3715.6135      1173.4769      188.88894      1.2022096    
  23010000   301.69309     -3713.1812      1175.9181      160.60627      18.653752    
  23015000   299.25152     -3710.0086      1269.4628      235.48991      15.303445    
  23020000   296.74119     -3694.4957      1245.921       205.01266     -8.0125872    
  23025000   300.58088     -3687.5575      1169.3751      169.74111     -11.607855    
  23030000   306.59044     -3700.2037      1210.0915      251.55141      18.884611    
  23035000   298.4664      -3704.1714      1249.1406      213.98412     -25.475029    
  23040000   298.29545     -3690.2747      1227.2146      204.42607     -8.2419788    
  23045000   297.11867     -3717.0474      1231.157       171.07245     -26.92102     
  23050000   300.01445     -3687.6621      1220.788       215.98419     -12.403548    
  23055000   302.8816      -3701.271       1179.5308      186.75723     -10.70334     
  23060000   299.25263     -3650.5927      1211.6391      237.09207     -24.878511    
  23065000   309.74318     -3668.7728      1230.0092      331.09321     -9.119437     
  23070000   295.74067     -3673.4917      1243.7686      214.91718     -10.493321    
  23075000   297.86512     -3687.3326      1224.2487      200.55416      17.303116    
  23080000   298.78774     -3695.8283      1288.8177      264.87798      19.505587    
  23085000   305.97838     -3652.0387      1247.8249      331.97655      9.429389     
  23090000   308.08472     -3661.5533      1220.1488      313.62161      15.116489    
  23095000   306.09132     -3665.7805      1210.1031      281.52285     -11.577494    
  23100000   302.33404     -3629.7939      1252.8786      326.68573      15.429829    
  23105000   301.18431     -3660.2627      1235.5279      268.58486     -9.6002148    
  23110000   298.62753     -3639.2483      1181.2745      212.48203     -21.005388    
  23115000   296.72179     -3653.0856      1200.3761      200.70443     -8.2757497    
  23120000   296.12061     -3679.7322      1248.5475      216.85317      27.731965    
  23125000   288.53909     -3700.526       1227.4402      107.15493     -18.940556    
  23130000   300.41224     -3679.4406      1165.6048      172.5797       8.3910364    
  23135000   301.3455      -3655.8652      1216.3248      255.22071     -1.0606285    
  23140000   303.02792     -3649.8735      1209.4559      269.38835      8.4935841    
  23145000   303.34725     -3651.3835      1236.6541      297.93215      22.479244    
  23150000   298.30371     -3638.0399      1226.5377      256.05785     -0.58486188   
  23155000   288.74083     -3654.5364      1182.0436      109.55184     -1.0477355    
  23160000   296.19225     -3648.3194      1240.961       241.32005     -28.516531    
  23165000   298.00202     -3635.7422      1227.4372      256.55724      7.6465865    
  23170000   296.3003      -3620.8575      1233.6875      262.47474      5.8877892    
  23175000   299.72209     -3639.0842      1227.526       268.68565     -10.570841    
  23180000   309.36477     -3637.8625      1192.432       321.0424       20.494132    
  23185000   300.33781     -3628.0573      1213.088       270.78063     -8.1458101    
  23190000   297.20068     -3648.0394      1215.7308      225.38768      22.939847    
  23195000   298.79085     -3614.7677      1182.4265      239.57512     -18.006037    
  23200000   295.18083     -3612.8349      1201.0555      227.85452     -13.648624    
  23205000   298.49678     -3605.8037      1242.9326      306.41546     -32.643289    
  23210000   301.77681     -3607.5081      1201.5317      292.6417      -9.8407523    
  23215000   297.6213      -3590.6336      1268.1882      339.0123      -9.6318308    
  23220000   298.15849     -3583.3202      1187.1455      270.08683      9.1055978    
  23225000   297.14267     -3610.7846      1232.3628      278.75571     -1.463191     
  23230000   303.6828      -3615.8264      1221.5613      321.39717     -10.003349    
  23235000   302.53139     -3599.1577      1237.0616      343.26977      4.3745677    
  23240000   301.24338     -3618.8012      1239.9112      314.95785     -1.627731     
  23245000   300.2111      -3618.1563      1226.0009      292.46145     -16.736982    
  23250000   301.91747     -3606.5212      1206.7595      300.11426     -13.979588    
  23255000   300.88298     -3610.2448      1267.3634      347.74361     -1.1928497    
  23260000   305.43461     -3599.996       1183.2737      314.60543      11.387926    
  23265000   302.26977     -3613.2983      1187.5904      277.31841     -7.5984661    
  23270000   300.60698     -3617.0108      1232.439       303.58515     -18.835102    
  23275000   302.9159      -3630.6409      1237.4225      315.58594      6.5450014    
  23280000   299.78679     -3667.1176      1255.8243      269.52912      7.4754691    
  23285000   301.83341     -3673.8687      1218.3112      243.56671      24.393501    
  23290000   297.23717     -3636.2146      1256.29        278.09807      3.3582816    
  23295000   298.5189      -3637.1269      1213.4737      245.83122     -6.2646044    
  23300000   296.4011      -3596.1836      1173.63        227.99249      0.49677356   
  23305000   309.97891     -3636.3918      1197.7382      333.31117      9.2524442    
  23310000   295.21773     -3663.7433      1297.9541      274.17477     -17.931508    
  23315000   297.09162     -3655.7286      1222.2738      223.26623     -25.216309    
  23320000   296.11751     -3641.6264      1194.4742      200.85794      4.736557     
  23325000   295.34483     -3640.7125      1246.566       246.954       -6.4067923    
  23330000   293.73904     -3647.9146      1203.131       181.95723      8.9274076    
  23335000   295.21039     -3618.0956      1194.0117      215.81445     -9.749303     
  23340000   310.9262      -3627.2107      1221.6171      374.84224     -3.3312411    
  23345000   294.52182     -3640.3339      1256.4863      249.8932       28.027282    
  23350000   297.81645     -3661.8212      1191.0113      192.39296      0.38185697   
  23355000   296.07474     -3638.9178      1147.9047      156.61462      17.405478    
  23360000   302.30889     -3655.9561      1251.1458      298.5658      -16.477022    
  23365000   297.47995     -3652.1328      1238.2831      246.344        5.094541     
  23370000   306.73614     -3654.6995      1224.4922      312.75917      8.2211787    
  23375000   296.77587     -3662.8655      1196.6238      187.65572      12.030812    
  23380000   310.67031     -3666.4185      1214.4595      326.18852      32.54028     
  23385000   302.04254     -3670.665       1229.6942      260.02349      28.967537    
  23390000   299.96667     -3651.0783      1167.2885      198.64115      13.700709    
  23395000   303.55921     -3661.1694      1203.2534      256.64105     -5.3213484    
  23400000   305.71359     -3674.8533      1216.12        275.08914      10.238391    
  23405000   299.00504     -3693.7194      1228.5194      208.63172      3.2758934    
  23410000   295.27965     -3667.8658      1150.5096      123.16141      11.682025    
  23415000   302.98764     -3678.5874      1232.3826      263.241        13.306483    
  23420000   295.39714     -3679.1958      1174.2738      136.64627     -11.080273    
  23425000   295.64274     -3680.7923      1299.5556      262.52787     -8.6754707    
  23430000   304.74943     -3702.0297      1184.8652      208.03603     -8.7337697    
  23435000   300.43121     -3697.4648      1226.2059      215.32614     -21.892719    
  23440000   305.48043     -3731.89        1184.006       183.8534       37.545893    
  23445000   284.16061     -3745.4654      1209.1885      4.8094832     -24.586954    
  23450000   306.07819     -3701.1744      1176.5007      212.40904     -0.88580944   
  23455000   303.15178     -3694.2869      1219.8832      236.50995      14.574684    
  23460000   298.23348     -3714.1692      1234.7975      187.56031      9.0455099    
  23465000   306.53899     -3699.756       1208.8184      250.26594     -5.7555408    
  23470000   304.42574     -3722.6569      1209.2801      208.92904     -18.396359    
  23475000   301.08643     -3734.2782      1210.9136      169.07976      0.54808603   
  23480000   299.15016     -3712.2861      1257.0037      219.84703      5.5431444    
  23485000   302.03624     -3703.0292      1189.7063      187.61505     -12.053689    
  23490000   299.38146     -3715.4543      1227.3379      189.08131      1.7834856    
  23495000   304.876       -3706.2912      1207.5364      227.5776      -10.371755    
  23500000   299.20849     -3728.5673      1188.7033      135.78701      4.057978     
  23505000   293.07581     -3726.1305      1222.2138      116.89331     -4.6569556    
  23510000   293.21406     -3736.6222      1224.3903      109.81426      38.742161    
  23515000   295.60875     -3729.6305      1250.8567      164.68687      5.2463871    
  23520000   296.66039     -3725.3672      1247.0715      174.56913     -0.18078474   
  23525000   302.8863      -3707.4439      1218.3103      219.40605     -20.182553    
  23530000   294.83458     -3721.9855      1234.5823      149.13445      28.875923    
  23535000   308.28038     -3702.3068      1203.6515      258.12049     -5.578553     
  23540000   297.36449     -3730.2689      1180.8057      109.69798      21.844044    
  23545000   296.29974     -3711.8208      1194.0613      131.88026      14.059989    
  23550000   297.52949     -3705.577       1233.6744      188.73399      4.0078584    
  23555000   295.02008     -3697.0293      1176.7223      117.88947      29.072166    
  23560000   306.2548      -3692.1185      1250.9081      297.45172     -8.1518933    
  23565000   296.49619     -3692.1329      1230.1827      189.44632     -9.3305203    
  23570000   299.41952     -3691.3597      1212.3762      198.55457      21.407297    
  23575000   298.16507     -3692.5299      1223.0315      196.82189      39.082903    
  23580000   307.83766     -3720.169       1204.5698      237.21763      0.62031571   
  23585000   308.3593      -3719.4042      1225.9286      264.00588      22.101634    
  23590000   298.40806     -3691.0145      1169.6874      147.1661       7.6063762    
  23595000   296.94089     -3729.6674      1212.7357      138.44154     -7.6482956    
  23600000   302.0246      -3736.6729      1209.3514      173.51242     -18.353075    
  23605000   299.90353     -3734.7407      1258.4466      205.57227     -27.449481    
  23610000   299.02209     -3699.6958      1214.2656      188.55388      20.876288    
  23615000   300.69991     -3714.8279      1150.0927      124.25274      14.752413    
  23620000   300.77038     -3709.0504      1215.1126      195.68038      6.2451199    
  23625000   293.48155     -3672.4422      1225.8928      177.88881      26.437958    
  23630000   301.67531     -3658.5229      1187.611       226.79846     -14.325402    
  23635000   300.18477     -3697.9131      1200.332       186.80025     -40.706456    
  23640000   297.09785     -3691.1265      1214.7828      180.43309      11.318279    
  23645000   297.96357     -3718.4332      1235.7935      181.87874      15.44443     
  23650000   299.06447     -3688.916       1243.4517      228.89883      3.5117809    
  23655000   290.90717     -3703.742       1188.9815      86.656454     -17.254239    
  23660000   296.2591      -3699.0766      1182.3148      132.51448     -7.5174016    
  23665000   307.21602     -3676.5173      1260.4679      331.20836      9.0063769    
  23670000   293.85451     -3680.273       1207.593       155.09339     -13.893522    
  23675000   301.18342     -3688.703       1239.5403      244.14889     -20.124627    
  23680000   298.99577     -3691.9641      1193.6455      175.4301      -10.15871     
  23685000   295.40778     -3662.9608      1276.2901      254.99265      7.5765533    
  23690000   302.99384     -3680.5334      1170.9802      199.94805      18.103606    
  23695000   304.95353     -3667.1459      1173.9775      233.85729      13.527426    
  23700000   296.48638     -3681.1541      1233.5188      203.67347      11.99121     
  23705000   308.31367     -3658.7973      1240.6353      338.91145     -40.153557    
  23710000   294.42876     -3681.0986      1204.9453      156.75536     -11.682548    
  23715000   300.09557     -3701.7942      1201.7762      183.56562      17.680671    
  23720000   304.3568      -3680.5947      1202.4014      243.49606      19.526061    
  23725000   298.31083     -3672.566       1236.7789      231.83669      0.38406094   
  23730000   301.27466     -3677.0579      1214.6094      231.67917     -4.3821473    
  23735000   297.85247     -3701.6359      1209.9527      171.84171      7.0238993    
  23740000   303.5937      -3668.1259      1231.4795      278.219        8.4693867    
  23745000   304.33393     -3683.158       1189.6701      227.99701     -6.6876212    
  23750000   299.51928     -3677.0965      1220.4125      221.74628     -1.8824707    
  23755000   296.24398     -3697.6729      1175.782       127.25018     -14.780798    
  23760000   302.28611     -3653.2858      1236.5489      286.43559      17.055969    
  23765000   310.66402     -3681.9934      1202.4049      298.50278      11.795187    
  23770000   292.82501     -3693.6294      1238.904       163.84181      7.8592951    
  23775000   293.2319      -3695.3556      1240.5667      167.41697      6.28574      
  23780000   295.4922      -3692.2929      1212.7256      162.851        3.4796877    
  23785000   296.73089     -3698.034       1198.6517      154.11297      15.094187    
  23790000   306.32489     -3692.7985      1231.7939      278.28438      2.8866766    
  23795000   297.85508     -3686.5784      1186.5145      163.48434     -7.2382222    
  23800000   293.85381     -3650.6254      1263.9046      241.04639      2.7884745    
  23805000   303.91939     -3664.8647      1246.0363      298.94953      2.7159881    
  23810000   294.97542     -3692.6407      1170.5057      115.66205      9.6076347    
  23815000   296.69409     -3660.1604      1183.3129      176.3186       13.678355    
  23820000   303.08474     -3652.3893      1165.595       223.51991      5.1662627    
  23825000   300.26452     -3695.5382      1211.3243      200.88061     -7.3696428    
  23830000   296.60771     -3680.1962      1202.6128      174.81033     -9.789666     
  23835000   296.77743     -3637.2872      1225.0718      241.69603      6.7679128    
  23840000   295.67157     -3647.9262      1236.7236      232.81971      14.587129    
  23845000   305.82736     -3647.8387      1262.1871      349.18823     -0.73530185   
  23850000   298.68861     -3665.078       1148.7683      154.69233      16.94922     
  23855000   294.82099     -3660.4644      1237.0247      212.9764       18.700308    
  23860000   306.03699     -3671.7911      1194.4364      259.35969      20.762101    
  23865000   298.16469     -3645.3166      1225.0053      246.0057       22.264156    
  23870000   299.1114      -3659.9437      1194.7707      209.60969     -16.073896    
  23875000   298.09389     -3659.0896      1207.1435      213.73778      16.28083     
  23880000   307.4786      -3670.1678      1200.0629      279.50102      1.8749672    
  23885000   305.19619     -3653.1742      1229.866       305.88747      4.1742132    
  23890000   305.7023      -3646.2561      1171.9162      259.38162      7.9156971    
  23895000   299.80898     -3669.4452      1209.6239      221.19955     -16.872977    
  23900000   306.4062      -3651.3629      1252.9492      341.6024      -18.778579    
  23905000   290.83195     -3645.936       1231.9711      186.7795       19.650473    
  23910000   294.91562     -3659.5042      1222.6913      200.44935     -3.7989009    
  23915000   301.68302     -3690.8549      1244.4752      251.3996      -1.3866469    
  23920000   302.45404     -3664.6227      1215.0752      255.12654      24.04673     
  23925000   299.79001     -3686.8618      1230.5566      224.54605     -5.2720125    
  23930000   298.23715     -3660.6746      1208.1176      214.40783      17.439762    
  23935000   299.85809     -3699.5631      1230.3376      212.23449     -10.450082    
  23940000   302.97375     -3666.2131      1159.4457      202.55414      0.066020669  
  23945000   299.6642      -3655.6369      1177.9562      202.04551     -7.1882846    
  23950000   296.932       -3688.574       1236.9774      203.697        22.080764    
  23955000   299.57133     -3683.5478      1227.6266      222.97453     -15.814825    
  23960000   298.09379     -3700.1765      1200.7988      166.30513      11.2681      
  23965000   295.94547     -3701.4528      1211.4726      156.49154      21.855154    
  23970000   300.64477     -3687.0133      1189.1988      190.68048      7.3052603    
  23975000   296.20475     -3709.7477      1196.156       135.19864      9.681441     
  23980000   310.73462     -3700.101       1183.9606      262.58226     -9.4881133    
  23985000   301.28781     -3718.987       1244.4708      219.729        5.7903192    
  23990000   299.50332     -3723.1613      1208.4382      163.5645       10.840855    
  23995000   301.76789     -3683.9445      1198.6666      213.26042      4.5087242    
  24000000   311.55447     -3703.4322      1206.3383      288.96008      18.438102    
  24005000   301.63389     -3719.6267      1245.6259      223.3392      -12.823437    
  24010000   299.07775     -3720.1278      1223.4322      177.78632      7.2873746    
  24015000   294.17476     -3692.2452      1264.4         202.79211      10.651571    
  24020000   300.59386     -3701.5686      1213.4452      199.91626      16.527121    
  24025000   298.32158     -3715.7437      1252.1919      204.16804      8.2634908    
  24030000   296.01421     -3673.4067      1208.9099      182.58964      3.6830758    
  24035000   299.66279     -3672.2486      1277.6409      285.10584     -27.510515    
  24040000   301.58132     -3661.8864      1215.9476      250.93116      28.262698    
  24045000   307.05754     -3650.0341      1252.8515      348.65802     -10.063005    
  24050000   309.05665     -3664.9675      1217.4895      316.23952     -8.3133685    
  24055000   300.88679     -3666.6183      1194.7192      218.75996      8.1387007    
  24060000   297.30172     -3668.9297      1184.7882      174.45841     -28.741775    
  24065000   307.65008     -3670.1352      1215.4383      296.44243      14.102068    
  24070000   303.99674     -3674.8084      1219.5506      263.21177      21.018699    
  24075000   302.22996     -3687.0166      1231.8869      247.54066     -4.6374776    
  24080000   302.38416     -3666.0157      1187.5714      225.60491     -1.5626686    
  24085000   298.01891     -3633.5662      1186.9621      218.40927     -1.3912903    
  24090000   296.16857     -3667.8624      1183.0021      163.60645      3.7013842    
  24095000   293.97159     -3691.1874      1207.1818      144.81478     -10.324397    
  24100000   295.31979     -3699.0238      1265.0859      206.93861      5.4013822    
  24105000   303.83039     -3652.3532      1202.4784      267.10731     -3.5299281    
  24110000   297.77135     -3678.4441      1208.6795      193.03487     -7.0385278    
  24115000   301.38294     -3711.3178      1253.5286      237.30676     -10.071131    
  24120000   298.79435     -3672.0056      1160.7403      160.68225     -18.719635    
  24125000   304.37488     -3674.0573      1198.651       246.44481      1.9150355    
  24130000   295.91281     -3713.3932      1225.2942      158.08065     -5.7710468    
  24135000   303.01141     -3663.0096      1182.975       229.62371     -3.556386     
  24140000   302.07702     -3713.9609      1189.7144      177.05621      10.92531     
  24145000   292.2781      -3704.0505      1241.7658      151.39185     -18.38208     
  24150000   303.84081     -3698.8457      1198.0083      216.23782      5.5063484    
  24155000   304.95744     -3696.5482      1190.7912      221.3037       12.743817    
  24160000   297.08991     -3702.4059      1210.0143      164.31413      24.707365    
  24165000   298.22576     -3695.6324      1263.5895      234.82016      3.2074528    
  24170000   301.95034     -3735.3565      1185.6235      150.43676      21.527228    
  24175000   295.13798     -3692.9077      1222.7495      169.09259     -0.40901828   
  24180000   302.61674     -3701.8176      1188.0944      192.4059      -3.5609863    
  24185000   305.46657     -3678.1515      1225.4434      278.90536      28.36661     
  24190000   303.45249     -3653.8375      1215.692       275.45709     -10.594979    
  24195000   298.224       -3660.145       1211.2019      217.90423     -1.5194551    
  24200000   299.67807     -3667.735       1204.0304      216.14558     -15.527266    
  24205000   304.98456     -3643.465       1238.8819      322.72004      9.5115126    
  24210000   301.0563      -3640.5219      1240.8543      292.50724     -12.534543    
  24215000   303.40196     -3657.3154      1211.0391      266.87458     -3.0745254    
  24220000   304.26196     -3635.5585      1171.3244      256.60727     -1.4919792    
  24225000   298.56037     -3633.2803      1202.7583      239.3333       22.972112    
  24230000   297.55883     -3663.0332      1233.1224      230.98829     -1.8573034    
  24235000   310.65313     -3634.0247      1230.6793      374.64855      25.166936    
  24240000   303.73586     -3608.1944      1209.0526      316.99484     -10.701143    
  24245000   302.5318      -3616.5054      1228.9175      317.78161      6.7124854    
  24250000   307.18939     -3654.6656      1202.311       294.66498      26.284619    
  24255000   296.59049     -3651.1815      1172.9636      174.02181     -7.1413435    
  24260000   295.91444     -3673.8174      1278.8102      251.18697     -25.008321    
  24265000   293.01601     -3654.0407      1258.997       225.23153     -1.4650258    
  24270000   292.20424     -3639.6723      1200.2641      173.60789      19.959461    
  24275000   305.46151     -3666.6017      1240.2784      305.24493      4.8073309    
  24280000   297.66871     -3655.173       1230.3232      237.03185     -20.80582     
  24285000   306.08681     -3680.3949      1208.1087      264.87378      23.947274    
  24290000   302.22098     -3674.9893      1232.1781      259.77878      14.614372    
  24295000   302.51669     -3671.4093      1219.1637      252.98885      1.6477161    
  24300000   303.15495     -3666.442       1184.8121      229.31202      13.868533    
  24305000   295.78577     -3658.9895      1256.9298      242.98386      5.347145     
  24310000   309.2071      -3690.4889      1211.455       286.02899     -13.587165    
  24315000   302.19502     -3680.5046      1145.6209      167.47415      0.14702263   
  24320000   300.5735      -3663.7767      1165.7687      189.84948      19.312792    
  24325000   299.24363     -3667.2563      1242.7489      251.45783      7.1729749    
  24330000   293.81337     -3668.3318      1213.6527      172.72638      16.036083    
  24335000   295.73029     -3678.9614      1241.7873      207.37335      7.756311     
  24340000   297.25943     -3697.6774      1239.0443      199.58858     -15.500631    
  24345000   302.15817     -3709.5313      1188.17        180.66711     -8.0431875    
  24350000   299.25032     -3652.766       1195.8625      219.12159      8.1746124    
  24355000   301.64377     -3669.7072      1175.5839      203.305       -12.321275    
  24360000   291.42424     -3707.086       1192.4383      91.3932       -16.534832    
  24365000   294.0103      -3730.5937      1235.0677      133.64064      26.697884    
  24370000   305.96716     -3721.0292      1239.2543      254.31517     -4.8659659    
  24375000   297.26431     -3704.1555      1227.2335      181.34329     -10.040474    
  24380000   306.26351     -3664.2108      1250.0103      324.53958     -9.4814779    
  24385000   303.79797     -3700.0593      1216.9072      233.54003     -9.2158732    
  24390000   307.1716      -3678.8867      1205.7432      273.71709     -2.9543963    
  24395000   314.24918     -3704.2902      1217.2014      323.06255      9.5327997    
  24400000   297.58465     -3726.564       1189.863       124.42892      15.829328    
  24405000   288.84055     -3731.1009      1230.3732      82.208815     -11.010919    
  24410000   300.87924     -3742.4005      1212.5238      160.71488     -2.2634267    
  24415000   313.52376     -3728.2229      1167.8604      243.30186      9.852741     
  24420000   301.13605     -3716.3271      1217.5683      194.1293       15.362326    
  24425000   302.63717     -3728.3785      1232.1392      210.07238      29.777184    
  24430000   291.45753     -3716.0146      1245.1203      135.44431      21.865039    
  24435000   310.32811     -3707.1417      1222.843       290.78876      26.523822    
  24440000   298.00689     -3721.9971      1170.1066      113.01532     -22.073255    
  24445000   305.32582     -3700.1376      1221.4453      251.66251     -6.3760998    
  24450000   301.62194     -3680.458       1206.8859      223.66106      15.210376    
  24455000   296.44058     -3719.7145      1212.6873      143.87196     -11.922576    
  24460000   291.14529     -3707.6895      1226.9108      122.7677       5.4654973    
  24465000   296.05625     -3719.8096      1194.0143      121.66699     -8.5411256    
  24470000   299.28545     -3687.8995      1214.5093      202.94895     -3.5579548    
  24475000   298.11834     -3710.641       1223.5965      178.858       -20.798587    
  24480000   301.52319     -3689.2975      1199.3003      206.35282     -5.7632275    
  24485000   295.40704     -3689.6316      1219.1237      171.14891      7.7096637    
  24490000   309.32137     -3724.7313      1219.9746      261.3281       26.644347    
  24495000   298.63168     -3735.0845      1205.7516      141.16006     -1.4493957    
  24500000   303.87505     -3737.7641      1247.6992      227.31648      21.322626    
  24505000   298.45122     -3710.9416      1224.8219      182.75949      17.141216    
  24510000   304.29474     -3708.1618      1236.6305      249.60318     -30.522549    
  24515000   306.45978     -3723.272       1213.4452      230.66835      14.112968    
  24520000   304.22541     -3709.6026      1216.1425      227.05434      13.630338    
  24525000   308.19894     -3701.4016      1266.2473      320.89323      1.230631     
  24530000   315.84886     -3693.9283      1197.0276      327.5557      -5.1744207    
  24535000   298.75159     -3682.4423      1237.1417      226.26468      21.920985    
  24540000   301.18064     -3673.831       1226.4789      245.93469     -1.68917      
  24545000   297.08294     -3719.5902      1179.941       116.99416     -12.753242    
  24550000   297.82671     -3717.4327      1225.931       171.79288      18.095307    
  24555000   301.02027     -3666.8057      1240.408       265.45512     -8.1181987    
  24560000   302.76547     -3720.7982      1266.0946      252.7555       23.402103    
  24565000   299.56681     -3698.9968      1228.8156      208.67402     -14.232607    
  24570000   294.55197     -3708.3731      1221.8858      147.52313     -25.890529    
  24575000   302.25181     -3698.0842      1215.332       220.11341      15.38405     
  24580000   300.81451     -3688.184       1183.6261      185.45491      10.464685    
  24585000   293.99552     -3698.804       1194.0128      124.24326      22.850467    
  24590000   299.88839     -3697.4697      1217.0701      201.33143      14.330321    
  24595000   297.90975     -3675.8671      1263.8368      252.00675     -14.228021    
  24600000   299.28669     -3717.12        1222.7865      182.01683      6.5095323    
  24605000   296.80849     -3716.8166      1215.7916      153.16419      16.347344    
  24610000   307.53795     -3709.0651      1185.3109      226.38242      15.786159    
  24615000   295.87306     -3730.8937      1198.3952      113.32561     -16.645608    
  24620000   304.19098     -3712.037       1239.5477      247.71731      12.322593    
  24625000   304.63553     -3704.1504      1155.0602      175.09177     -0.93045591   
  24630000   301.03404     -3713.3717      1226.4542      205.0584       1.9266244    
  24635000   299.31883     -3714.1813      1238.0637      200.52008      15.774221    
  24640000   307.29222     -3720.4035      1204.7625      232.29818      25.757937    
  24645000   302.75898     -3717.1696      1243.714       233.94538      1.4580745    
  24650000   300.37548     -3726.9993      1240.0407      199.12818      24.847018    
  24655000   301.42865     -3740.9608      1194.428       148.97189     -3.4029237    
  24660000   297.7882      -3732.3667      1217.175       147.75842      28.222727    
  24665000   298.61432     -3713.7012      1206.148       162.78448     -3.8081519    
  24670000   297.9692      -3739.0367      1204.6315      130.16354      35.110022    
  24675000   297.19956     -3739.4921      1194.499       112.69314     -31.237321    
  24680000   299.34817     -3722.3567      1242.4181      196.96159     -28.553345    
  24685000   298.87523     -3743.9255      1195.2787      124.02405      28.479907    
  24690000   299.6879      -3714.3094      1195.8602      161.48883      26.430546    
  24695000   298.82437     -3757.5521      1182.176       96.839944      10.282167    
  24700000   304.27241     -3709.4896      1217.3022      228.74737      15.788047    
  24705000   304.88        -3721.4009      1209.8657      214.83291     -6.9708533    
  24710000   302.86869     -3763.7534      1232.5043      177.13304      30.480622    
  24715000   301.78226     -3753.7241      1198.6853      143.62805     -26.902143    
  24720000   299.19975     -3743.7566      1233.3863      165.20255      13.696076    
  24725000   292.90584     -3763.1789      1207.9138      64.024945     -8.9844412    
  24730000   302.61083     -3762.2031      1221.715       165.58814     -1.9897137    
  24735000   294.42601     -3744.2792      1227.7252      116.32996     -13.467924    
  24740000   296.97788     -3756.9805      1180.2173      78.940705      29.740694    
  24745000   305.08548     -3739.803       1167.3344      155.73691     -5.4800698    
  24750000   298.93607     -3762.0464      1236.4618      147.6303      -8.3374134    
  24755000   299.59489     -3754.7903      1192.5405      116.85662      6.3746575    
  24760000   301.74387     -3736.8553      1223.1924      184.66066     -5.1837271    
  24765000   295.20983     -3754.0387      1209.5012      95.355825     -3.179321     
  24770000   301.34839     -3742.0505      1223.1165      175.85289      4.6682886    
  24775000   297.47228     -3748.8154      1240.9603      152.26991     -2.9798841    
  24780000   295.9286      -3727.7232      1218.3823      136.97992      0.84453131   
  24785000   303.16636     -3747.765       1183.6154      146.89438      33.014455    
  24790000   298.58578     -3768.7313      1214.035       115.38614      3.5629457    
  24795000   293.15262     -3757.169       1235.4121      99.739942     -19.299578    
  24800000   300.09146     -3757.4404      1182.8578      108.96429      20.999196    
  24805000   306.09991     -3761.2067      1242.5973      218.66763      7.4891807    
  24810000   303.08014     -3746.2185      1162.8358      126.89034     -14.967685    
  24815000   296.72581     -3721.333       1268.3066      200.42345     -20.28548     
  24820000   286.39591     -3736.1785      1195.4219      20.318834      8.6523828    
  24825000   301.57252     -3753.986       1214.9527      157.75797     -2.138374     
  24830000   299.4165      -3755.1212      1196.5787      118.96862     -8.816236     
  24835000   291.76699     -3745.874       1191.6157      54.847618      16.342394    
  24840000   296.73985     -3771.77        1173.6716      55.47697      -10.115155    
  24845000   305.77836     -3779.7359      1196.0192      150.68492     -2.2729511    
  24850000   299.71993     -3774.2635      1215.31        121.27102      10.325276    
  24855000   299.5039      -3739.2382      1210.6997      149.75416      13.808204    
  24860000   300.62453     -3751.8804      1196.7216      133.15503     -7.8419604    
  24865000   303.25716     -3770.8523      1189.7025      130.70613      31.328302    
  24870000   304.67298     -3720.6228      1224.9312      228.82526      14.368537    
  24875000   309.27723     -3766.7163      1236.5318      235.50556     -11.446622    
  24880000   296.67026     -3762.7241      1210.4959      100.72494     -6.928777     
  24885000   300.91062     -3797.6335      1200.0747      93.313422     -8.5289778    
  24890000   299.30196     -3770.1047      1187.3493      93.731493      6.0964757    
  24895000   284.29402     -3749.277       1217.3712      10.373649     -9.662131     
  24900000   306.06952     -3763.9961      1234.7699      207.77909      4.8754728    
  24905000   297.09874     -3751.1481      1180.719       86.355616     -2.9774649    
  24910000   293.58804     -3764.8259      1279.2948      139.8595       4.6210467    
  24915000   300.18166     -3784.2659      1212.2185      112.30614      10.358294    
  24920000   295.8934      -3785.1126      1266.0907      126.98409      9.7671675    
  24925000   297.7552      -3809.2673      1212.4833      65.870986      1.9757286    
  24930000   305.89435     -3785.3701      1201.4201      151.48877     -0.8902071    
  24935000   300.97666     -3812.7417      1195.8935      74.614617     -5.3477651    
  24940000   298.86611     -3762.3941      1195.377       105.57216      12.668127    
  24945000   297.62017     -3748.4245      1156.5298      69.552902     -18.365583    
  24950000   301.56008     -3768.2996      1196.7757      125.15598      7.8095415    
  24955000   294.78854     -3760.7108      1231.9876      107.4027       11.414479    
  24960000   298.55258     -3730.1229      1143.9966      83.659327     -29.54624     
  24965000   297.84472     -3771.2129      1195.8473      88.090016     -5.9761364    
  24970000   294.47846     -3749.8681      1120.6016      4.0865629      24.029194    
  24975000   297.27361     -3755.8903      1204.2934      106.75162      0.83067145   
  24980000   297.26878     -3770.8012      1191.184       78.688131      1.535296     
  24985000   305.53799     -3769.0496      1209.0716      172.2742      -17.109015    
  24990000   296.58648     -3795.0466      1173.7471      30.904443     -1.6901333    
  24995000   293.38656     -3758.4182      1206.0332      71.203823      5.0952688    
  25000000   302.93622     -3743.3172      1138.7238      104.39267     -0.89969017   
  25005000   299.01114     -3767.092       1187.3395      94.133848     -23.523138    
  25010000   308.99211     -3778.4898      1270.3209      254.97147     -16.532568    
Loop time of 14213.6 on 64 procs for 25000000 steps with 3001 atoms

Performance: 4559.011 ns/day, 0.005 hours/ns, 1758.878 timesteps/s
99.6% CPU use with 64 MPI tasks x 1 OpenMP threads

MPI task timing breakdown:
Section |  min time  |  avg time  |  max time  |%varavg| %total
---------------------------------------------------------------
Pair    | 34.773     | 338.14     | 2421.9     |4021.1 |  2.38
Bond    | 28.875     | 54.333     | 221.86     | 841.6 |  0.38
Neigh   | 3897.3     | 3988.5     | 4202.5     | 112.8 | 28.06
Comm    | 6918       | 9568.9     | 9999.4     | 926.8 | 67.32
Output  | 36.369     | 36.489     | 36.571     |   1.0 |  0.26
Modify  | 47.459     | 87.868     | 336.64     | 993.2 |  0.62
Other   |            | 139.3      |            |       |  0.98

Nlocal:        46.8906 ave         204 max           5 min
Histogram: 24 31 1 0 0 0 0 0 1 7
Nghost:        3469.89 ave        3817 max        3026 min
Histogram: 8 0 0 0 22 2 12 12 0 8
Neighs:        733.516 ave        5536 max          17 min
Histogram: 56 0 0 0 0 0 0 1 3 4
FullNghs:      1467.03 ave       11411 max          20 min
Histogram: 56 0 0 0 0 0 0 1 4 3

Total # of neighbors = 93890
Ave neighs/atom = 31.286238
Ave special neighs/atom = 3.5988004
Neighbor list builds = 2500000
Dangerous builds = 2499990
Total wall time: 3:56:57
