LAMMPS (23 Jun 2022)
OMP_NUM_THREADS environment is not set. Defaulting to 1 thread. (src/src/comm.cpp:98)
  using 1 OpenMP thread(s) per MPI task

variable 		movie equal 25000
variable		output equal 5000
variable		solvent equal 0.2  #0.2 is a good solvent, 0.5 is a bad solvent, 1.0 is no solvent/vacuum
variable		np_rad equal 25.0  #NP radius in Angstrom (= 0.1 nm)
variable		coor_del equal 3.0  # in order for a ligand to be considered to be bound, it must be within this radius of the edge of the NP VDW
variable 		s2_cutoff equal 35
variable 		E_bind equal 4.0  #ligand-NP binding energy in kcal/mol
variable		Lbox equal 150.0   #edge length of cubic simulation box
variable 		Nlig equal 600	   #number of ligands
variable		seed equal 314159
variable		trajsteps equal 25000000	 #number of timesteps (length of simulation)
restart			2500000 save

units 			real
atom_style		molecular

region 			box block 0 ${Lbox} 0 ${Lbox} 0 ${Lbox} units box
region 			box block 0 150 0 ${Lbox} 0 ${Lbox} units box
region 			box block 0 150 0 150 0 ${Lbox} units box
region 			box block 0 150 0 150 0 150 units box
create_box		4 box bond/types 2 angle/types 1 extra/bond/per/atom 2 extra/angle/per/atom 1 extra/special/per/atom 3
Created orthogonal box = (0 0 0) to (150 150 150)
  4 by 4 by 4 MPI processor grid

molecule		lig ligand.mol
Read molecule template lig:
  1 molecules
  0 fragments
  5 atoms with max type 2
  4 bonds with max type 1
  3 angles with max type 1
  0 dihedrals with max type 0
  0 impropers with max type 0
#molecule		hex hexane.mol

mass            1 60 #C1, MARTINI bead representing a 4-carbon segment of an alkyl chain
mass            2 60 #N6d, MARTINI bead representing a NH2 amino group + a 2-carbon segment of an alkyl chain
mass            3 43 #SC2, MARTINI bead representing a 3-carbon segment of an alkyl chain. NOT USED IN THIS SIMULATION!
mass            4 500 #a spherical nanoparticle. the mass is not realistic.

# put NP in center
create_atoms	4 single $(v_Lbox/2) $(v_Lbox/2) $(v_Lbox/2) units box
create_atoms	4 single 75 $(v_Lbox/2) $(v_Lbox/2) units box
create_atoms	4 single 75 75 $(v_Lbox/2) units box
create_atoms	4 single 75 75 75 units box
Created 1 atoms
  using box units in orthogonal box = (0 0 0) to (150 150 150)
  create_atoms CPU = 0.000 seconds

# define region as everything outside a spherical center in sim. box. ASSUME SIM. BOX IS IMPLIED? doc seems to...
region			box_with_hole sphere $(v_Lbox/2) $(v_Lbox/2) $(v_Lbox/2) $(v_np_rad+5.0) side out units box
region			box_with_hole sphere 75 $(v_Lbox/2) $(v_Lbox/2) $(v_np_rad+5.0) side out units box
region			box_with_hole sphere 75 75 $(v_Lbox/2) $(v_np_rad+5.0) side out units box
region			box_with_hole sphere 75 75 75 $(v_np_rad+5.0) side out units box
region			box_with_hole sphere 75 75 75 30 side out units box

create_atoms	0 random ${Nlig} ${seed} box_with_hole mol lig 12345
create_atoms	0 random 600 ${seed} box_with_hole mol lig 12345
create_atoms	0 random 600 314159 box_with_hole mol lig 12345
Created 3000 atoms
  using lattice units in orthogonal box = (0 0 0) to (150 150 150)
  create_atoms CPU = 0.004 seconds

pair_style		lj/expand 12.0
pair_modify		shift yes

#pair_coeff		1 1 energy sigma delta cut

#ligand-ligand interactions
pair_coeff		1 1 $(v_solvent*0.810) 4.7 0 12
pair_coeff		1 1 0.16200000000000003286 4.7 0 12
pair_coeff		2 2 $(v_solvent*0.841) 4.7 0 12
pair_coeff		2 2 0.16820000000000001616 4.7 0 12
pair_coeff		1 2 $(v_solvent*0.667) 4.7 0 12
pair_coeff		1 2 0.13340000000000001856 4.7 0 12

#solvent-ligand interactions, NOT USED IN THIS SIMULATION
pair_coeff		3 3 0.562 4.1 0 12
pair_coeff		1 3 0.755 4.3 0 12
pair_coeff		2 3 0.554 4.3 0 12

#interactions involving the NP
pair_coeff  	1 4 0.100 4.0 $(v_np_rad-2.5) 12
pair_coeff  	1 4 0.100 4.0 22.5 12
pair_coeff  	3 4 0.100 4.0 $(v_np_rad-2.5) 12
pair_coeff  	3 4 0.100 4.0 22.5 12
pair_coeff		4 4 0.100 4.0 $(2*v_np_rad-4.0) 12
pair_coeff		4 4 0.100 4.0 46 12
pair_coeff   	2 4 ${E_bind} 4.0 $(v_np_rad-2.5) 12 #this interaction controls the binding strength of ligands to the NP core
pair_coeff   	2 4 4 4.0 $(v_np_rad-2.5) 12 
pair_coeff   	2 4 4 4.0 22.5 12 

bond_style  	harmonic
bond_coeff  	1 4.54 4.7 	#C1-C1
bond_coeff		2 5.98 4.05 #SC2-SC2, hexane

angle_style		cosine/squared
angle_coeff		1 4.1826 180

special_bonds 	lj 0 1 1
Finding 1-2 1-3 1-4 neighbors ...
  special bond factors lj:    0        1        1       
  special bond factors coul:  0        0        0       
     2 = max # of 1-2 neighbors
     2 = max # of 1-3 neighbors
     2 = max # of 1-4 neighbors
     7 = max # of special neighbors
  special bonds CPU = 0.001 seconds

group			ligands type 1 2
3000 atoms in group ligands


#EQULILIBRATION: getting rid of overlaps between particles using fix nve/limit ***************

fix 			1 ligands nve/limit 0.1
fix 			2 ligands langevin 300 300 1000 12345 #langevin thermostat

timestep		30

thermo 			${output}
thermo 			5000

dump      		1 all custom 5000 pos.lammpstrj type x y z
dump_modify		1 sort id

run				10000
Generated 0 of 6 mixed pair_coeff terms from geometric mixing rule
Neighbor list info ...
  update every 1 steps, delay 10 steps, check yes
  max neighbors/atom: 2000, page size: 100000
  master list distance cutoff = 60
  ghost atom cutoff = 60
  binsize = 30, bins = 5 5 5
  1 neighbor lists, perpetual/occasional/extra = 1 0 0
  (1) pair lj/expand, perpetual
      attributes: half, newton on
      pair build: half/bin/newton
      stencil: half/bin/3d
      bin: standard
Per MPI rank memory allocation (min/avg/max) = 8.076 | 8.105 | 8.367 Mbytes
   Step          Temp          E_pair         E_mol          TotEng         Press     
         0   0              9.8623636e+13  4.0068356e-25  9.8623636e+13  8.0147754e+12
      5000   143.36141     -372.42867      657.08426      1566.655       3.4040381    
     10000   141.87909     -447.6175       618.95925      1440.0856     -1.3120949    
Loop time of 3.89969 on 64 procs for 10000 steps with 3001 atoms

Performance: 6646.688 ns/day, 0.004 hours/ns, 2564.309 timesteps/s
99.5% CPU use with 64 MPI tasks x 1 OpenMP threads

MPI task timing breakdown:
Section |  min time  |  avg time  |  max time  |%varavg| %total
---------------------------------------------------------------
Pair    | 0.011596   | 0.050872   | 0.10746    |  10.3 |  1.30
Bond    | 0.0077497  | 0.020925   | 0.033116   |   3.8 |  0.54
Neigh   | 0.60793    | 0.61412    | 0.62412    |   0.5 | 15.75
Comm    | 3.0483     | 3.132      | 3.1944     |   2.1 | 80.31
Output  | 0.001207   | 0.0012226  | 0.001236   |   0.0 |  0.03
Modify  | 0.015654   | 0.040235   | 0.06229    |   5.1 |  1.03
Other   |            | 0.0403     |            |       |  1.03

Nlocal:        46.8906 ave          81 max          20 min
Histogram: 6 8 5 7 13 5 10 8 1 1
Nghost:        3404.48 ave        3526 max        3312 min
Histogram: 4 4 9 12 10 11 8 4 1 1
Neighs:        321.453 ave         736 max          56 min
Histogram: 6 8 13 7 8 10 4 5 2 1

Total # of neighbors = 20573
Ave neighs/atom = 6.8553815
Ave special neighs/atom = 3.5988004
Neighbor list builds = 909
Dangerous builds = 0

#PRODUCTION RUN ******************************************************************************

unfix 			1
fix 			1 ligands nve
undump			1
# define spherical region in center of sim. box
# region			center sphere $(v_Lbox/2) $(v_Lbox/2) $(v_Lbox/2) $(v_np_rad+5.0) units box
# delete atoms in the region
# delete_atoms	region center mol yes
# put NP in the hole
# create_atoms	4 single $(v_Lbox/2) $(v_Lbox/2) $(v_Lbox/2) units box

dump      		2 all custom ${movie} pos2.lammpstrj type x y z
dump      		2 all custom 25000 pos2.lammpstrj type x y z
dump_modify		2 sort id
dump 			2. all custom ${output} pos2_long.lammpstrj type x y z
dump 			2. all custom 5000 pos2_long.lammpstrj type x y z
dump_modify 	2. sort id

group           nps     type 4
1 atoms in group nps
group           amines  type 2
600 atoms in group amines

# count coordination number of NP
compute coords nps coord/atom cutoff $(v_np_rad + v_coor_del) 2
compute coords nps coord/atom cutoff 28 2
dump 3 nps custom ${output} coords.dmp c_coords
dump 3 nps custom 5000 coords.dmp c_coords
# equivalent calculation below
# compute coords nps coord/atom cutoff 28 group amines
# dump 4 nps custom ${output} coords2.dmp type c_coords2

# seond shell
compute coords2 nps coord/atom cutoff ${s2_cutoff} 2
compute coords2 nps coord/atom cutoff 35 2
dump 4 nps custom ${output} coords2.dmp c_coords2
dump 4 nps custom 5000 coords2.dmp c_coords2



run				${trajsteps}
run				25000000
Generated 0 of 6 mixed pair_coeff terms from geometric mixing rule
Neighbor list info ...
  update every 1 steps, delay 10 steps, check yes
  max neighbors/atom: 2000, page size: 100000
  master list distance cutoff = 60
  ghost atom cutoff = 60
  binsize = 30, bins = 5 5 5
  3 neighbor lists, perpetual/occasional/extra = 1 2 0
  (1) pair lj/expand, perpetual
      attributes: half, newton on
      pair build: half/bin/newton
      stencil: half/bin/3d
      bin: standard
  (2) compute coord/atom, occasional
      attributes: full, newton on
      pair build: full/bin
      stencil: full/bin/3d
      bin: standard
  (3) compute coord/atom, occasional
      attributes: full, newton on
      pair build: full/bin
      stencil: full/bin/3d
      bin: standard
Per MPI rank memory allocation (min/avg/max) = 10.11 | 10.24 | 12.12 Mbytes
   Step          Temp          E_pair         E_mol          TotEng         Press     
     10000   141.87909     -447.6175       618.95925      1440.0856     -1.3120949    
     15000   295.20939     -382.12082      1276.9602      3534.7288      13.688248    
     20000   299.17902     -401.03568      1218.6967      3493.0485      5.6498079    
     25000   303.73087     -461.19865      1282.6713      3537.5647      8.9326081    
     30000   296.51506     -434.50671      1257.2821      3474.3406     -2.0194829    
     35000   298.07207     -488.56924      1289.8172      3466.7366      3.3708859    
     40000   295.85163     -503.70657      1240.5129      3382.4388      5.3744481    
     45000   301.20749     -510.25705      1240.6494      3423.9193      1.7532202    
     50000   293.77869     -522.14334      1329.9409      3434.893       7.5403706    
     55000   291.45785     -555.37011      1274.9655      3325.9369      6.2180447    
     60000   299.77548     -576.79022      1241.214       3345.1451      1.1032909    
     65000   292.62141     -586.64753      1228.4407      3258.5396     -6.8689055    
     70000   298.21321     -593.67723      1240.9023      3313.9759     -2.9039999    
     75000   305.65913     -557.67054      1293.3472      3469.0121     -0.86761437   
     80000   298.19542     -566.73902      1281.9568      3381.8095      5.8833891    
     85000   302.91689     -560.19401      1256.8437      3405.4628      8.0714128    
     90000   299.04032     -520.4981       1317.3753      3471.0244      3.4872853    
     95000   290.53583     -556.5972       1283.8297      3325.3289      7.8074337    
    100000   298.90982     -611.96523      1314.0079      3375.0229      1.4110218    
    105000   297.30533     -612.69833      1258.5556      3304.4894     -2.1886625    
    110000   303.09336     -590.50682      1223.5602      3343.4446      7.7516323    
    115000   300.15192     -584.10765      1251.9513      3351.9312      16.109004    
    120000   294.6647      -558.68085      1262.9989      3339.3365      11.162255    
    125000   301.74093     -560.42133      1313.5445      3451.4203      10.986185    
    130000   293.38008     -586.26812      1260.7312      3297.9939      0.96116881   
    135000   301.25428     -562.89129      1272.6174      3403.6715      11.473463    
    140000   303.41642     -567.33608      1277.0857      3423.0297      5.8326831    
    145000   299.4227      -538.32194      1228.132       3367.3767      12.273649    
    150000   296.15858     -568.33703      1248.4121      3328.4525      6.1262361    
    155000   298.36812     -580.26493      1282.0693      3369.9405     -2.1537425    
    160000   298.63874     -593.89448      1298.5387      3375.2003      9.4129743    
    165000   305.63151     -598.60957      1278.3865      3412.8653      5.7773       
    170000   292.13303     -604.28384      1277.517       3285.6123      7.5332278    
    175000   293.9931      -576.64944      1287.0849      3339.4482      9.2373131    
    180000   297.17626     -565.42852      1297.4462      3389.4957      3.2238965    
    185000   305.57195     -584.92287      1263.1691      3410.802       16.342872    
    190000   302.22351     -563.44953      1272.01        3411.1731      7.7271003    
    195000   305.92802     -593.30702      1344.8964      3487.3292      10.295186    
    200000   294.54735     -620.89914      1255.045       3268.115       4.4480004    
    205000   302.15851     -615.4126       1310.2952      3396.914       1.1575796    
    210000   306.15736     -563.97125      1278.299       3452.1185     -4.5847016    
    215000   289.3666      -545.16543      1234.6409      3277.1161      16.61437     
    220000   301.42962     -599.19061      1246.6528      3342.9755      21.923098    
    225000   293.93254     -579.97024      1239.3879      3287.8889      2.345261     
    230000   304.09674     -591.55305      1235.9134      3363.7241      2.7025435    
    235000   292.21834     -572.58204      1331.0073      3371.5673      2.2667295    
    240000   301.4093      -549.44935      1278.0491      3423.9314      1.9123089    
    245000   294.04251     -577.22213      1298.6185      3350.851       4.2212596    
    250000   301.92027     -546.12423      1233.5559      3387.3326      15.114342    
    255000   300.48858     -577.00879      1240.6665      3350.7559      4.6804528    
    260000   301.22806     -550.10584      1258.3698      3401.9748     -6.4034229    
    265000   301.09232     -573.85436      1322.3839      3441.0265      18.465812    
    270000   300.51183     -540.46275      1266.8229      3413.6662      8.3550906    
    275000   301.44292     -575.70473      1295.6719      3415.5994      10.514529    
    280000   295.87036     -560.42746      1303.1582      3388.5309      1.2289504    
    285000   299.94669     -553.48601      1274.0777      3402.844       0.68722716   
    290000   291.33372     -572.82902      1269.9638      3302.3662      7.5205747    
    295000   307.02432     -566.92568      1298.0058      3476.6236      5.6974399    
    300000   303.93051     -603.4697       1279.4221      3393.8298      5.4361406    
    305000   305.42252     -552.67165      1224.2149      3402.7628      7.0918226    
    310000   302.83761     -595.15192      1273.0327      3385.985      -8.2553703    
    315000   305.4906      -572.85812      1220.746       3379.7163      2.3774687    
    320000   304.3056      -600.08647      1265.7686      3386.9137      10.014429    
    325000   297.76506     -545.0993       1288.4985      3406.1424      4.8648491    
    330000   302.18748     -557.41186      1269.5031      3414.3816      7.7688655    
    335000   293.35195     -581.03524      1273.1812      3315.4253      8.1725623    
    340000   295.76905     -598.90633      1263.075       3309.0627      0.2629687    
    345000   306.09728     -587.9271       1302.7963      3452.1228      2.6909337    
    350000   303.93872     -572.72146      1253.9543      3399.1837      2.5147846    
    355000   301.24722     -573.62409      1276.4264      3396.6845     -1.8800603    
    360000   296.30579     -589.56125      1289.2668      3349.3994      3.3908874    
    365000   298.53595     -561.28474      1277.6385      3385.9907      2.0330305    
    370000   304.29839     -548.95586      1313.5026      3485.7139      7.2212215    
    375000   300.7935      -553.41037      1251.5145      3387.929      -2.9904363    
    380000   303.4508      -599.64867      1284.4201      3398.359       15.184385    
    385000   298.52812     -570.42817      1267.2553      3366.394      -3.9794835    
    390000   304.03282     -557.83278      1209.9688      3370.9282      11.453141    
    395000   304.7637      -585.43691      1293.5603      3433.4515      5.277475     
    400000   302.6353      -599.28647      1298.7517      3405.7603      3.9489915    
    405000   301.07688     -619.79883      1297.6025      3370.1627      9.3232795    
    410000   301.71451     -579.6422       1312.8099      3431.2286     -4.1957391    
    415000   294.05637     -651.9522       1232.869       3210.4953     -0.43654283   
    420000   301.62404     -629.12548      1273.4806      3341.607       13.638386    
    425000   302.93739     -613.4415       1290.3832      3385.9381      10.343888    
    430000   303.72701     -627.9741       1262.4567      3350.5402      10.005037    
    435000   301.06156     -601.47264      1290.2918      3381.0411      4.5265327    
    440000   305.15984     -537.17602      1251.9675      3443.662       7.0050257    
    445000   298.56915     -546.56553      1253.7575      3377.1257      5.246524     
    450000   301.65766     -569.37286      1288.9127      3417.0923     -1.8482364    
    455000   306.41355     -593.48453      1274.4612      3421.0584      9.4481785    
    460000   303.05623     -586.42652      1263.6165      3387.2491      9.5752724    
    465000   303.65033     -580.33918      1285.1378      3420.1705     -0.069005879  
    470000   299.14503     -600.56593      1239.663       3314.1807      12.38315     
    475000   298.76628     -582.51544      1246.7322      3335.9133      3.9350576    
    480000   303.04508     -578.55563      1317.2407      3448.6446      10.399371    
    485000   299.32538     -625.25626      1282.7948      3334.2348      6.9994476    
    490000   299.5582      -569.2769       1249.4147      3358.9161      7.8232727    
    495000   301.61304     -545.73116      1304.3302      3455.7526      3.1271178    
    500000   291.70322     -554.49874      1300.0404      3354.0773      12.186033    
    505000   298.80859     -535.77187      1292.3514      3428.6544      7.5027522    
    510000   298.61266     -539.53478      1236.6371      3367.4251      1.1061119    
    515000   297.12325     -549.32985      1323.8196      3431.4936      13.094767    
    520000   309.92501     -543.31581      1275.3965      3503.5634      13.30681     
    525000   309.16051     -563.56894      1283.8461      3484.9235      5.8206532    
    530000   300.62982     -557.94789      1217.6565      3348.0698      6.5241812    
    535000   303.66452     -589.07131      1309.2413      3435.6687      1.1943038    
    540000   299.23077     -587.93978      1293.6074      3381.5179     -3.6010612    
    545000   307.06144     -529.1717       1235.7723      3452.4761      8.0969459    
    550000   297.7087      -523.21209      1253.1138      3392.141       12.076028    
    555000   298.91329     -575.39818      1302.0417      3399.6547      10.297464    
    560000   308.73677     -582.17344      1294.2697      3472.9532      14.638527    
    565000   300.95282     -590.14355      1236.1615      3337.2675      16.156537    
    570000   305.51625     -561.78192      1258.9435      3429.2193      4.2572801    
    575000   298.89526     -549.8549       1234.2595      3357.2546      2.0165869    
    580000   294.17018     -527.90907      1230.9009      3333.5882      17.700418    
    585000   296.43058     -564.27049      1286.251       3372.7903      5.596034     
    590000   293.76246     -549.44952      1330.589       3408.0898      3.907734     
    595000   296.49118     -544.92922      1258.4068      3364.8292      15.066665    
    600000   302.36411     -564.76394      1275.6142      3414.7202      11.409932    
    605000   301.60409     -554.56668      1276.1573      3418.6641      4.5261709    
    610000   299.88374     -551.50122      1253.0833      3383.2715      7.5232093    
    615000   300.8808      -561.63956      1253.9917      3382.9577      6.9351298    
    620000   286.49862     -532.42214      1302.0944      3331.6662      3.6946278    
    625000   294.31593     -566.18957      1284.5248      3350.2349     -9.9202201    
    630000   297.56054     -574.34393      1310.4417      3397.0122      20.011947    
    635000   306.33744     -544.98503      1259.1686      3453.5847      3.8645488    
    640000   289.07034     -586.28485      1320.049       3318.7554     -0.93895127   
    645000   295.64451     -606.46251      1270.8339      3308.1519      13.25907     
    650000   300.37542     -578.44371      1287.4199      3395.0623      6.1539607    
    655000   296.5717      -546.3003       1239.2923      3345.0638     -6.9442161    
    660000   309.9556      -581.52992      1276.5997      3466.8261     -1.5481739    
    665000   300.4687      -572.48457      1250.7217      3365.1575      1.7166557    
    670000   300.66999     -601.81422      1266.5193      3353.4255     -1.0234272    
    675000   292.49262     -580.94551      1283.0058      3317.6551      3.2928428    
    680000   296.8306      -567.5932       1289.1016      3375.8953      8.6823158    
    685000   288.54938     -571.88922      1259.3185      3267.762       8.5001861    
    690000   306.77927     -555.00172      1234.3164      3422.6669      4.7526698    
    695000   300.1925      -604.11521      1252.9919      3333.3271      12.382712    
    700000   299.64163     -587.86941      1276.6107      3368.2657      13.634854    
    705000   297.463       -581.9021       1254.845       3332.985       13.475359    
    710000   299.07026     -573.85164      1284.0744      3384.6377     -3.5890342    
    715000   301.47445     -575.12171      1280.3261      3401.1187     -0.61592988   
    720000   300.38051     -588.63465      1249.4484      3346.9455      3.9658511    
    725000   297.6869      -604.23699      1249.2696      3307.0769      0.14614732   
    730000   300.1147      -582.52844      1259.7165      3360.9428      11.376438    
    735000   295.47509     -618.52155      1278.7365      3302.4803      9.2917787    
    740000   303.8114      -586.48223      1274.0297      3404.3597      2.1071457    
    745000   304.65944     -616.95513      1309.2298      3416.6704      2.3429535    
    750000   294.32285     -587.29759      1266.2328      3310.8967      11.346593    
    755000   307.51066     -597.59986      1318.6149      3470.9077      5.1582791    
    760000   302.02015     -581.1691       1297.6866      3417.3116     -2.6257737    
    765000   308.20657     -641.02298      1297.1132      3412.2059      0.26852331   
    770000   296.28472     -636.3154       1208.2713      3221.4613      17.918832    
    775000   303.86189     -635.73614      1273.4093      3354.9369      12.194238    
    780000   294.89053     -619.09638      1296.1365      3314.0781      2.9622421    
    785000   296.1622      -632.76625      1235.9613      3251.6048     -6.5062006    
    790000   301.76323     -633.50579      1228.724       3293.7148      9.257689     
    795000   296.32725     -642.40402      1290.7125      3298.1943      9.3805175    
    800000   298.70386     -607.10261      1289.8074      3353.8432      13.925093    
    805000   299.41213     -578.52391      1266.8057      3365.7538      6.7163426    
    810000   305.14963     -571.15333      1318.9051      3476.531       5.6725646    
    815000   306.35557     -584.08404      1334.5023      3489.9815      12.584049    
    820000   301.0964      -561.95495      1264.8733      3395.4518      17.691326    
    825000   298.59504     -567.5562       1262.3192      3364.9283      14.918073    
    830000   295.3437      -564.19657      1264.9284      3341.8223      4.0957689    
    835000   311.32406     -543.47776      1313.7871      3554.303       3.131127     
    840000   296.85068     -583.49763      1249.2742      3320.3431      19.770356    
    845000   299.16554     -616.74         1304.3821      3362.909       1.5147177    
    850000   301.16598     -605.19349      1274.064       3362.0262      0.36675181   
    855000   301.27909     -576.29978      1309.0809      3426.9484      11.690819    
    860000   298.25718     -578.3555       1262.6179      3351.4064      7.1184474    
    865000   299.92158     -550.98523      1351.3808      3482.4233     -6.8630446    
    870000   303.17209     -562.26557      1263.4586      3412.2883      12.752149    
    875000   300.90735     -567.18871      1294.819       3418.4733      7.9259363    
    880000   295.48758     -562.43733      1266.4178      3346.3575     -3.8898819    
    885000   295.64325     -554.65948      1275.0445      3364.1542      15.220281    
    890000   301.9998      -560.95195      1275.85        3415.5102      5.5200248    
    895000   303.64916     -550.1096       1241.3834      3406.6351      0.96649099   
    900000   295.77149     -540.46401      1287.3469      3391.7987      0.91705507   
    905000   302.94906     -542.92286      1276.6226      3442.8006      12.482349    
    910000   300.04993     -526.58547      1268.6099      3425.1999      11.383451    
    915000   301.3848      -550.82334      1292.0613      3436.3505      13.478903    
    920000   301.25975     -552.14264      1284.9718      3426.8235      3.7649163    
    925000   295.36664     -561.46965      1220.1065      3299.9324      0.88365734   
    930000   298.41008     -558.74779      1281.6101      3391.3736      6.9844358    
    935000   307.94624     -535.29175      1276.4544      3494.9504     -2.5358984    
    940000   298.40962     -559.39626      1273.3837      3382.4947      8.6638968    
    945000   308.88325     -583.28244      1322.9347      3501.8192     -2.1207904    
    950000   299.92738     -570.66278      1301.1371      3412.554       2.0254409    
    955000   301.58728     -580.3574       1328.8846      3445.4504      3.7955213    
    960000   304.02679     -617.78386      1303.0762      3404.0306      10.538246    
    965000   294.28786     -612.52905      1250.4204      3269.5401      0.11273213   
    970000   299.80303     -643.45324      1242.7228      3280.2373      11.640743    
    975000   306.52613     -596.0585       1247.5705      3392.6005      5.0068989    
    980000   295.88016     -640.05964      1311.5231      3317.3511      1.9609992    
    985000   301.17897     -611.47023      1263.7149      3345.5165      12.427268    
    990000   294.93909     -599.10479      1277.0183      3315.3858      15.672461    
    995000   291.7208      -589.36205      1223.5692      3242.9001      10.441359    
   1000000   303.86157     -571.71854      1262.5966      3408.1389      12.956852    
   1005000   298.71057     -557.92011      1268.9263      3382.2046      4.880345     
   1010000   307.34187     -550.33308      1259.2308      3457.2809      4.4916391    
   1015000   303.52181     -560.52851      1238.6586      3392.3527      6.6433743    
   1020000   299.59134     -579.85857      1288.0492      3387.2653      2.2986375    
   1025000   291.47962     -560.01192      1312.3059      3358.8301      6.6832959    
   1030000   295.12201     -578.54106      1283.6553      3344.2223      13.824699    
   1035000   299.87289     -631.15599      1241.284       3291.7204      16.875958    
   1040000   308.81573     -612.36647      1251.2202      3400.4168      12.389688    
   1045000   297.23722     -591.17206      1234.6388      3301.4898      7.236937     
   1050000   299.81735     -576.74454      1277.9089      3382.26        5.6381628    
   1055000   302.01927     -553.30104      1321.0902      3468.5754      6.9767736    
   1060000   293.15327     -569.41357      1267.4171      3319.5061      14.235868    
   1065000   301.50254     -552.84896      1211.9715      3355.2879      2.8603226    
   1070000   303.94329     -588.31505      1253.641       3383.3176      12.858123    
   1075000   297.56581     -570.55316      1266.593       3357.0013     -0.40368801   
   1080000   292.27574     -564.83081      1297.8155      3346.6401      0.26358239   
   1085000   299.72287     -551.38051      1242.917       3371.7873      1.7438412    
   1090000   294.93268     -581.46665      1280.3241      3336.2724      3.665218     
   1095000   302.30462     -584.98732      1330.2711      3448.6218      4.5703669    
   1100000   305.77755     -599.25149      1257.6846      3392.8274      15.618473    
   1105000   299.18107     -583.76073      1305.9024      3397.5475      20.056639    
   1110000   293.50355     -574.25612      1238.1054      3288.4843      6.6317761    
   1115000   301.07724     -603.97315      1272.6299      3361.019       7.3371716    
   1120000   301.1838      -598.35363      1318.1378      3413.0992      23.21639     
   1125000   300.6287      -592.9833       1253.681       3349.0488      17.101214    
   1130000   295.75599     -570.09781      1294.5078      3369.1873      6.5599092    
   1135000   303.44761     -580.65037      1314.9535      3447.8622     -3.9212185    
   1140000   303.37188     -596.59931      1269.3342      3385.6167      13.380601    
   1145000   299.61672     -592.58269      1273.2227      3359.9416      10.591773    
   1150000   303.61017     -567.04011      1311.9118      3459.8845      19.694519    
   1155000   297.45499     -607.11687      1283.9815      3336.835       4.3615754    
   1160000   299.96935     -619.88133      1361.7027      3424.2764      4.3013574    
   1165000   300.41731     -639.29649      1312.7225      3359.8868      5.3292978    
   1170000   296.76271     -584.26554      1256.5648      3326.079      -0.48831077   
   1175000   313.84421     -617.96409      1208.0087      3396.5746      10.794015    
   1180000   291.34318     -610.72045      1285.9509      3280.5464      10.179701    
   1185000   303.85274     -562.72034      1245.3747      3399.8362     -0.88776233   
   1190000   297.2301      -559.04841      1314.608       3413.519       8.4701831    
   1195000   305.2179      -561.44194      1240.611       3408.5587      11.440427    
   1200000   298.09885     -578.62528      1301.2831      3388.3859      9.4647437    
   1205000   303.0431      -574.32823      1253.9033      3389.5169      5.8554146    
   1210000   307.03129     -514.99399      1242.2373      3472.8492      5.2106776    
   1215000   301.18767     -565.55557      1288.0445      3415.8386      7.5394717    
   1220000   298.14498     -579.19635      1295.6407      3382.585      -4.4481025    
   1225000   306.92433     -544.64762      1251.0014      3451.0032      9.3328058    
   1230000   303.3378      -592.72814      1290.655       3410.5039      7.1685352    
   1235000   302.00059     -601.12516      1335.6744      3435.1684      19.863956    
   1240000   300.47576     -551.42799      1242.8479      3378.4034      5.3819925    
   1245000   295.36349     -581.44469      1254.6728      3314.4955     -4.4357575    
   1250000   301.62952     -567.96302      1324.4498      3453.7877     -5.840367     
   1255000   307.77124     -582.08389      1234.6246      3404.7635      11.225239    
   1260000   300.15167     -599.56807      1260.3407      3344.8579     -1.2648822    
   1265000   301.29017     -598.45939      1288.7742      3384.5811      17.455274    
   1270000   298.06896     -558.13137      1269.9519      3377.2814      15.979269    
   1275000   297.09586     -577.69657      1244.5965      3323.6589      10.061159    
   1280000   307.55337     -592.77818      1265.0039      3422.5003      10.207541    
   1285000   295.87906     -578.9027       1256.6738      3323.6489      6.6950009    
   1290000   302.50678     -548.43114      1307.4257      3464.1404      2.5071641    
   1295000   306.5852      -558.38403      1272.569       3455.8017     -0.6199253    
   1300000   304.91463     -556.96482      1314.1687      3483.8817      4.2132911    
   1305000   307.27214     -544.88815      1265.1636      3468.035       3.1511316    
   1310000   299.17346     -542.01267      1303.0717      3436.3968      4.4263845    
   1315000   287.59314     -578.87697      1258.4505      3251.3551     -10.763877    
   1320000   308.03955     -577.7232       1300.4224      3477.3214      6.7120754    
   1325000   298.37298     -592.90449      1268.2504      3343.5255      8.7799365    
   1330000   294.47899     -548.77116      1263.1341      3347.7208      9.1225956    
   1335000   297.87044     -541.57424      1344.02        3466.1314      5.4888815    
   1340000   299.72392     -568.87166      1288.5238      3399.9124      4.6522116    
   1345000   299.06243     -578.95338      1263.8415      3359.2331      8.765799     
   1350000   302.18883     -573.80024      1291.3178      3419.8201      11.63769     
   1355000   298.4469      -513.57283      1309.2077      3464.4754      9.2803624    
   1360000   298.28355     -554.24264      1282.9315      3396.0687      11.926715    
   1365000   300.40585     -565.48562      1268.7867      3389.6594     -2.5229649    
   1370000   305.05722     -581.55191      1308.5184      3454.9193      10.007392    
   1375000   300.52595     -563.98418      1316.3924      3439.8405      5.1981043    
   1380000   300.47058     -555.69823      1316.5257      3447.7646      2.1617042    
   1385000   302.90525     -581.04048      1303.1238      3430.7924      10.848656    
   1390000   297.25035     -567.69925      1272.726       3363.1673      8.743313     
   1395000   295.94659     -584.37247      1313.4511      3375.5603      7.5473574    
   1400000   298.22396     -577.14747      1245.9181      3335.6176      4.7987997    
   1405000   295.8318      -586.466        1258.6073      3317.5965     -1.0277478    
   1410000   294.12835     -578.64933      1198.1147      3249.6876      6.3645301    
   1415000   304.38533     -580.42218      1311.8577      3453.38        3.2563354    
   1420000   292.02815     -578.20378      1280.9437      3314.1813      4.2002752    
   1425000   298.38786     -586.48319      1250.278       3332.1074      5.0976599    
   1430000   298.25536     -582.12801      1302.7311      3387.7309      3.5358845    
   1435000   300.38526     -553.93745      1207.7861      3340.0229      9.8900448    
   1440000   302.96314     -531.09279      1266.5185      3444.6524      0.4842608    
   1445000   295.93221     -525.3908       1307.9927      3428.955      -0.76976926   
   1450000   303.44679     -493.05176      1276.7589      3497.2589     -1.945937     
   1455000   297.09193     -453.492        1284.5194      3487.7512      13.027331    
   1460000   302.44997     -460.32848      1261.4142      3505.7234      6.914608     
   1465000   301.08293     -536.28384      1287.4391      3443.5683     -2.4312898    
   1470000   300.86503     -529.7547       1264.8998      3425.6096     -3.2047068    
   1475000   299.92216     -562.34868      1246.6764      3366.3607      15.781742    
   1480000   303.85592     -550.33188      1264.468       3431.3464     -0.3546033    
   1485000   300.27733     -545.78301      1296.3692      3435.7952      1.5673887    
   1490000   295.68125     -530.93496      1281.4821      3394.6561      10.252295    
   1495000   296.80104     -522.44241      1259.0916      3390.7718      10.20075     
   1500000   293.57512     -549.20412      1276.0076      3352.0784      3.3465636    
   1505000   299.40304     -542.19545      1231.4551      3366.6503      5.3178814    
   1510000   299.10499     -551.42119      1276.0472      3399.3515      13.321047    
   1515000   299.00743     -565.79785      1283.29        3391.3452     -2.0376753    
   1520000   300.95194     -566.99101      1285.0979      3409.3486     -6.1202391    
   1525000   309.60356     -548.18508      1290.138       3510.5611      10.990953    
   1530000   298.69741     -576.83414      1273.8764      3368.123       9.175052     
   1535000   300.02509     -570.62845      1314.105       3426.43        11.417146    
   1540000   290.74735     -582.96589      1324.1646      3341.1866      5.3641167    
   1545000   298.124       -566.69123      1269.4868      3368.7486      3.3322621    
   1550000   298.02448     -576.18701      1305.7421      3394.6182      9.3491252    
   1555000   293.03823     -615.67585      1244.7493      3249.5474      9.5733701    
   1560000   301.32523     -629.56476      1291.2451      3356.2601      6.1956929    
   1565000   304.59155     -614.32331      1310.9855      3420.4508      4.4716179    
   1570000   304.42632     -597.8433       1256.2763      3380.7441      10.632602    
   1575000   290.03803     -604.38763      1298.7229      3287.9802      10.022579    
   1580000   288.09603     -607.74303      1307.5167      3276.0523      7.0809566    
   1585000   305.81663     -634.66537      1285.1513      3385.2298      10.692612    
   1590000   298.75674     -630.55077      1296.0621      3337.1226      5.1416873    
   1595000   298.71253     -614.5518       1286.2171      3342.8812     -2.4696514    
   1600000   298.45456     -613.19032      1282.1798      3337.8986      10.868312    
   1605000   300.88542     -599.82289      1301.7542      3392.5781      0.73343639   
   1610000   291.0846      -564.82842      1289.4768      3327.652       20.410661    
   1615000   298.65914     -580.75692      1252.9436      3342.9252      8.3627668    
   1620000   301.71711     -581.89765      1296.2065      3412.393       4.2758737    
   1625000   303.54867     -561.83065      1299.5551      3452.1873      7.8397611    
   1630000   309.47763     -578.10861      1239.7031      3429.0766      1.5293462    
   1635000   297.26152     -546.68929      1289.7958      3401.3469      14.135004    
   1640000   307.76563     -556.55893      1328.8079      3524.4216     -1.0298228    
   1645000   298.00799     -572.80495      1264.4008      3356.5115      2.0061812    
   1650000   295.05864     -576.41978      1230.1898      3292.3113      0.13600926   
   1655000   299.76251     -625.23179      1310.0394      3365.4129      0.76507108   
   1660000   299.5586      -565.36373      1310.469       3423.8871      8.44144      
   1665000   301.70925     -539.5436       1205.7457      3364.216       2.265062     
   1670000   298.95999     -567.56727      1192.5469      3298.4085      5.435224     
   1675000   294.69336     -600.76056      1288.2452      3322.7595      9.5226272    
   1680000   297.29418     -572.92575      1281.7372      3367.3439      12.191094    
   1685000   297.97477     -619.36713      1283.064       3328.3155     -1.1923254    
   1690000   298.13663     -619.75735      1264.8808      3311.1895      4.6600601    
   1695000   302.86549     -587.81978      1263.9311      3384.4648      8.0963968    
   1700000   301.10826     -588.92261      1294.8684      3398.5854      8.4083645    
   1705000   298.29419     -555.27272      1320.6623      3432.8646      5.0634006    
   1710000   296.02003     -580.18922      1300.2069      3367.1562      3.5966044    
   1715000   299.55883     -532.13107      1288.228       3434.8809      1.223768     
   1720000   300.99425     -549.77355      1303.6861      3445.5326      4.9830446    
   1725000   298.5414      -561.6499       1313.0133      3421.049       12.396729    
   1730000   305.35315     -582.78902      1260.8343      3408.6445      5.2850472    
   1735000   308.58337     -600.09662      1272.3008      3431.6894      6.3190206    
   1740000   294.7635      -623.51042      1318.7803      3331.1718      19.562354    
   1745000   297.56135     -571.26524      1282.3944      3372.0507      6.8026816    
   1750000   291.30662     -575.96246      1297.4391      3326.4658      6.5835243    
   1755000   294.13643     -569.50965      1284.2927      3345.0775      14.500521    
   1760000   298.73488     -589.32949      1286.5893      3368.6756      9.7622894    
   1765000   308.00297     -603.50201      1270.3972      3421.1903      8.542002     
   1770000   295.75873     -575.1668       1259.1757      3328.8107      9.2612162    
   1775000   298.84332     -568.14233      1289.2775      3393.5208      3.2213892    
   1780000   302.9244      -552.45599      1260.0664      3416.4907      0.67558091   
   1785000   298.63636     -544.19327      1296.626       3422.9675      11.152013    
   1790000   301.53814     -558.55198      1266.6628      3404.5946      12.526297    
   1795000   287.89794     -567.64829      1258.5014      3265.3603      11.034901    
   1800000   302.04595     -530.55432      1276.044       3446.5144      5.170259     
   1805000   299.98923     -542.34094      1292.8589      3433.1507      9.0132902    
   1810000   294.62527     -556.27804      1256.9499      3335.3378      4.2015575    
   1815000   303.67595     -554.51122      1294.5907      3455.6805      13.001876    
   1820000   299.47088     -526.97063      1268.0516      3419.0784      5.3913525    
   1825000   302.67702     -570.91835      1295.7058      3431.4556      2.9248408    
   1830000   302.14805     -538.00222      1278.4842      3442.4198      15.693869    
   1835000   285.62841     -562.83567      1262.4145      3253.7909      11.116348    
   1840000   298.69156     -554.23105      1267.6944      3384.4918      3.4245107    
   1845000   300.27192     -558.36585      1334.1928      3460.9876      16.895234    
   1850000   298.00147     -553.69034      1275.3233      3386.4903      11.506341    
   1855000   299.03888     -595.55723      1268.4944      3347.0715      8.5544293    
   1860000   308.99395     -564.50067      1268.4543      3467.1104      8.0334686    
   1865000   302.51008     -617.72724      1264.7942      3352.2422      2.9974471    
   1870000   310.55649     -576.29563      1329.2257      3530.0597      15.703341    
   1875000   298.8673      -571.70527      1253.1103      3354.005      -1.1423022    
   1880000   293.00784     -555.34339      1296.3004      3361.1591      8.385671     
   1885000   309.67234     -594.14635      1298.3901      3473.467       7.3115468    
   1890000   301.29351     -623.44715      1285.0374      3355.8864     -0.90582285   
   1895000   301.99963     -637.62941      1250.037       3313.0182      13.139334    
   1900000   298.22716     -614.84119      1251.8264      3303.8608      2.0188501    
   1905000   301.53603     -607.99785      1260.4775      3348.9445      8.5031091    
   1910000   300.00127     -603.13532      1299.4184      3379.0236     -2.7996908    
   1915000   301.43789     -626.49791      1215.156       3284.2454     -2.481039     
   1920000   295.94304     -595.54436      1279.1131      3330.0188      1.2279149    
   1925000   294.27234     -631.67265      1280.0123      3279.8495      8.4389008    
   1930000   308.83739     -650.73203      1251.6446      3362.6693      12.192841    
   1935000   298.63102     -645.38516      1319.505       3344.6069      1.7317913    
   1940000   305.23415     -635.06943      1217.5254      3311.991       16.723143    
   1945000   294.24659     -635.82369      1281.4591      3276.915       12.281611    
   1950000   301.70794     -613.37507      1236.2803      3320.9075      12.242031    
   1955000   301.20959     -594.9076       1297.3624      3396.0005      9.8148758    
   1960000   308.45208     -564.8522       1241.4493      3434.9083      13.195543    
   1965000   303.2477      -577.384        1296.0281      3430.4155      5.0367916    
   1970000   296.52783     -544.59437      1307.2852      3414.3702      11.790779    
   1975000   301.9745      -564.13356      1220.2438      3356.4961      0.47086739   
   1980000   299.39596     -572.96806      1288.3592      3392.7186      5.7601024    
   1985000   302.93549     -569.29149      1319.3964      3459.0844      6.3939948    
   1990000   301.82925     -580.84647      1310.5355      3428.776       8.0784412    
   1995000   296.10737     -594.82786      1262.8352      3315.9268      4.7300111    
   2000000   297.2096      -564.94412      1248.6485      3341.4805      3.099884     
   2005000   296.30307     -582.99631      1269.464       3336.1372      11.491602    
   2010000   298.96358     -576.29306      1298.075       3395.2429     -4.7096703    
   2015000   306.46285     -603.83547      1274.0992      3410.7863      5.8302205    
   2020000   299.38149     -587.15475      1285.0437      3375.087       11.110466    
   2025000   297.77351     -606.55337      1322.5211      3378.7866     -0.13556817   
   2030000   297.7711      -615.58847      1341.0323      3388.2411      6.6090328    
   2035000   306.76346     -572.92634      1299.4632      3469.7476      1.3439869    
   2040000   292.52952     -582.47919      1306.8465      3340.2922      16.76465     
   2045000   300.05519     -565.93699      1240.6026      3357.8882     -0.19934042   
   2050000   297.63312     -551.25063      1286.0662      3396.379       1.2625213    
   2055000   298.52306     -571.56872      1243.3305      3341.2834     -4.7719475    
   2060000   307.0145      -580.865        1292.568       3457.1587      6.9681098    
   2065000   305.43936     -555.07384      1315.6413      3491.9376      5.7762322    
   2070000   298.90701     -531.81717      1263.8361      3404.974       11.690236    
   2075000   293.95694     -528.87553      1316.192       3416.0059      10.662278    
   2080000   292.42501     -587.29988      1292.1984      3319.8888      1.0562449    
   2085000   296.50663     -553.28008      1258.52        3356.7298      11.763225    
   2090000   303.71648     -574.31918      1289.2428      3430.887       5.1084384    
   2095000   296.07353     -559.48304      1213.9273      3302.0611      18.711966    
   2100000   308.32971     -533.92009      1284.3803      3507.6771      4.6663727    
   2105000   305.88336     -549.3804       1270.5459      3456.5061      6.2345605    
   2110000   302.53854     -538.85393      1306.4359      3473.0117      3.9710786    
   2115000   297.70329     -579.16654      1273.616       3356.6403     -3.2694167    
   2120000   305.95832     -552.4821       1244.4968      3428.0256      5.840049     
   2125000   300.26156     -531.4364       1285.116       3438.7477     -3.4698089    
   2130000   305.06229     -551.42547      1238.0392      3414.612       8.0104485    
   2135000   303.95461     -595.999        1295.3104      3417.4042      3.6593544    
   2140000   295.99586     -591.9629       1242.9347      3297.8941      17.769634    
   2145000   304.9712      -593.23711      1295.6269      3429.5735      4.8436318    
   2150000   303.27665     -580.85184      1258.7219      3389.9003      0.27288982   
   2155000   301.80602     -574.77374      1299.7978      3423.9033      2.4570776    
   2160000   301.98966     -536.6541       1285.1024      3448.9698      10.434675    
   2165000   292.28546     -570.25048      1264.8094      3308.3013      3.9006126    
   2170000   297.08728     -554.35253      1283.0174      3385.3471      6.3366186    
   2175000   302.15844     -567.5462       1284.0189      3418.5034      10.350004    
   2180000   298.61718     -579.04919      1227.3938      3318.7079      13.960703    
   2185000   301.20519     -577.13196      1273.8059      3390.1803      18.374331    
   2190000   301.48479     -550.90361      1224.3289      3369.432       8.4080223    
   2195000   290.36747     -559.67382      1302.5058      3339.4228      5.6226907    
   2200000   304.72498     -620.0473       1300.0931      3405.0276     -3.6837803    
   2205000   292.35949     -615.68485      1247.0917      3245.8112      7.9232317    
   2210000   297.82998     -555.54198      1265.8838      3373.6656      12.608738    
   2215000   301.58734     -593.75138      1295.3873      3398.5597      4.0195566    
   2220000   292.1378      -552.73096      1252.8079      3312.4988      7.4010022    
   2225000   304.32211     -560.1527       1241.7958      3403.0224      10.281719    
   2230000   304.65218     -541.01473      1280.0336      3463.3498      12.593761    
   2235000   301.48587     -544.16111      1268.329       3420.1842     -3.0729027    
   2240000   302.76619     -536.45938      1263.5099      3434.516       1.8425178    
   2245000   309.11982     -544.06987      1282.3261      3502.5387      17.189113    
   2250000   299.37741     -543.59664      1281.2811      3414.846       0.080944085  
   2255000   298.9002      -548.25723      1293.3493      3417.9862      0.4322569    
   2260000   300.47533     -542.47122      1273.2174      3417.7258      4.6780398    
   2265000   304.79186     -558.02746      1291.5441      3459.0966      6.439939     
   2270000   304.63548     -558.20763      1292.2894      3458.2633      4.6683737    
   2275000   301.84907     -580.85963      1328.4794      3446.884      -1.1168008    
   2280000   298.79578     -586.59641      1314.1409      3399.5049      2.3506119    
   2285000   289.28389     -586.91742      1321.4215      3321.405       4.6700257    
   2290000   303.7459      -582.28691      1254.1858      3388.1253      1.7539893    
   2295000   302.15889     -551.4059       1278.0815      3428.7104      9.6725393    
   2300000   298.36594     -578.9826       1251.8449      3340.9789      2.3080701    
   2305000   300.99617     -577.91234      1265.0513      3378.7762      0.4097986    
   2310000   300.26262     -557.56099      1280.5672      3408.0837      13.873491    
   2315000   303.19891     -560.69379      1269.691       3420.3323      1.9508111    
   2320000   298.85784     -568.47129      1242.5083      3346.5524      2.4255233    
   2325000   304.83143     -579.45578      1268.8884      3415.3664      13.112427    
   2330000   299.49495     -567.89601      1274.9005      3385.2171      13.938325    
   2335000   295.82934     -596.81178      1317.0109      3365.6323     -5.0021298    
   2340000   296.00337     -611.64789      1321.7687      3357.1102      10.402988    
   2345000   295.32525     -602.4347       1314.2542      3352.7449      20.456872    
   2350000   298.35554     -620.88211      1229.716       3276.8575      13.988462    
   2355000   295.40728     -593.40113      1289.3259      3337.5838      10.394057    
   2360000   307.18436     -582.28902      1259.5363      3424.222      -0.3526554    
   2365000   296.72857     -587.24711      1263.6992      3329.9266      2.8706925    
   2370000   297.34293     -611.88752      1245.9016      3292.9825      6.1410714    
   2375000   299.23769     -592.60871      1297.6427      3380.9461      8.3326836    
   2380000   304.60894     -586.16835      1296.9761      3434.7519      7.454753     
   2385000   299.45374     -604.21747      1231.0827      3304.7093      6.6429733    
   2390000   299.20949     -604.41698      1312.0495      3383.2925     -3.2667697    
   2395000   294.68721     -573.66119      1280.0127      3341.5712      14.879522    
   2400000   303.62233     -585.77801      1307.0735      3436.417       3.0829417    
   2405000   301.92105     -579.78531      1294.7928      3414.9153     -4.5071685    
   2410000   293.40009     -562.41202      1270.0894      3331.3871      11.687711    
   2415000   295.75085     -599.90641      1275.4047      3320.2296      16.122143    
   2420000   306.27436     -578.11493      1289.2116      3449.9338      5.0319596    
   2425000   301.2532      -587.99952      1259.6165      3365.5526     -7.3466586    
   2430000   302.51211     -552.91172      1274.2376      3426.5192      0.48785717   
   2435000   306.69691     -528.17867      1297.4266      3511.8636      5.6203196    
   2440000   295.27339     -546.55619      1309.3945      3403.2999      7.5833149    
   2445000   299.97724     -568.27489      1331.3213      3445.572       4.0461475    
   2450000   301.27847     -531.86489      1258.9375      3421.2342      0.87595299   
   2455000   294.75058     -535.23365      1308.5239      3409.0766      1.8083258    
   2460000   301.17983     -579.47824      1316.0287      3429.83        10.288348    
   2465000   295.63419     -656.28259      1207.1595      3194.565       6.3635369    
   2470000   302.63576     -636.07561      1292.7618      3362.9853      1.496298     
   2475000   302.9819      -634.92845      1300.0489      3374.5149     -1.7057345    
   2480000   297.56277     -625.0182       1209.9144      3245.8304      15.899203    
   2485000   296.84655     -634.54105      1264.7071      3284.6955      10.155521    
   2490000   306.22682     -615.02719      1270.5576      3393.9423      0.52887914   
   2495000   301.60961     -644.82881      1278.1542      3330.4482      2.8589886    
   2500000   296.3274      -625.6924       1282.3196      3306.5143      8.5335163    
   2505000   299.64006     -641.06002      1293.4919      3331.9422     -3.4063095    
   2510000   303.20502     -647.54843      1275.3206      3339.1619     -0.015869979  
   2515000   295.52276     -650.71623      1277.5643      3269.5397      4.296603     
   2520000   306.05838     -604.52341      1263.315       3395.6973     -3.7887879    
   2525000   306.74156     -606.85656      1326.6461      3462.8045      6.9376386    
   2530000   306.96959     -603.68746      1266.2463      3407.613       12.453744    
   2535000   295.06292     -576.20631      1258.444       3320.8173      2.5705555    
   2540000   303.20632     -566.57776      1285.1952      3430.0188     -9.2084395    
   2545000   302.44825     -554.00194      1251.2405      3401.8609      14.864712    
   2550000   302.30087     -553.80179      1260.0419      3409.5445      8.5980156    
   2555000   290.94374     -576.5965       1272.3989      3297.5465      11.038913    
   2560000   296.4235      -525.42424      1239.1679      3364.4901      19.630188    
   2565000   301.75233     -539.70865      1289.1753      3447.8658     -3.6445092    
   2570000   300.27865     -534.87696      1325.313       3475.6569      7.9593053    
   2575000   303.03794     -535.45392      1234.1714      3408.6131      2.6478487    
   2580000   300.34202     -556.30862      1337.1546      3466.6336      8.4013248    
   2585000   305.48207     -557.53942      1264.7026      3438.9153     -3.8198803    
   2590000   306.39915     -561.48135      1304.9798      3483.4515     -0.45123444   
   2595000   305.13308     -537.45618      1262.1605      3453.3356      17.863761    
   2600000   302.0994      -517.07856      1248.5372      3432.9614     -3.9176392    
   2605000   303.87766     -515.84658      1257.2389      3458.797       18.024563    
   2610000   303.00058     -545.89214      1267.7064      3431.3758      11.879455    
   2615000   302.96927     -554.25941      1298.5779      3453.6         6.0457475    
   2620000   294.94299     -545.96857      1268.0613      3359.5998      7.2501925    
   2625000   293.0918      -583.08473      1322.3936      3360.2618     -6.9823562    
   2630000   292.83596     -594.13763      1249.4284      3273.9559     -1.9237838    
   2635000   306.94811     -567.0327       1253.5179      3431.3473     -2.2350999    
   2640000   298.91        -550.12202      1280.9867      3403.8464      8.6939755    
   2645000   302.8862      -570.20687      1267.9269      3406.2587      15.462382    
   2650000   301.4737      -582.72736      1275.1698      3388.3499      2.8614486    
   2655000   297.0884      -561.88018      1249.4809      3344.293       10.159698    
   2660000   299.47248     -583.68427      1277.4992      3371.8266      13.662544    
   2665000   302.3403      -609.24044      1218.3846      3312.8011      16.552495    
   2670000   292.61647     -609.21354      1262.2868      3269.7756      1.342388     
   2675000   296.98756     -603.73544      1296.144       3348.1991      2.7581467    
   2680000   307.31688     -586.7104       1273.8109      3435.2603      13.101133    
   2685000   304.77981     -589.92776      1357.6337      3493.1781      3.3593992    
   2690000   306.5135      -603.91899      1305.0797      3442.1362      7.6811496    
   2695000   297.805       -607.20454      1267.9389      3323.8348      16.121437    
   2700000   295.92465     -619.28607      1295.3433      3322.3428      24.267079    
   2705000   298.2964      -565.09444      1303.9274      3406.3278      4.4081726    
   2710000   305.64658     -587.65356      1275.422       3420.9916      3.4889454    
   2715000   304.14334     -585.06815      1266.893       3401.6054      9.6762552    
   2720000   299.25811     -562.02954      1291.8166      3405.8819      10.982226    
   2725000   300.9223      -584.62428      1276.2674      3382.6197      15.084861    
   2730000   301.63077     -592.47854      1274.0811      3378.9147     -2.547889     
   2735000   304.13448     -585.25227      1249.7014      3384.1504      14.533044    
   2740000   305.59071     -607.78802      1321.2631      3446.1987      8.6835634    
   2745000   292.1266      -592.96028      1291.0292      3310.3907      15.532407    
   2750000   297.58348     -598.75531      1278.0033      3340.3675      6.1272374    
   2755000   300.98701     -593.30362      1240.2808      3338.5325      6.9733819    
   2760000   301.11435     -592.93241      1237.2855      3337.0471      4.8730933    
   2765000   304.8843      -592.81088      1298.7098      3432.3054      14.897743    
   2770000   300.24641     -595.45179      1306.9038      3396.3845      14.953575    
   2775000   298.79239     -591.97682      1308.5909      3388.5442      3.4217243    
   2780000   306.16002     -599.19923      1297.084       3435.6994      4.9862823    
   2785000   302.68481     -616.78297      1337.6419      3427.5967      7.6698889    
   2790000   301.16762     -630.3771       1294.4638      3357.2571      1.2355534    
   2795000   312.76715     -595.60374      1283.9945      3485.2891      5.9425502    
   2800000   295.39089     -610.84016      1275.1845      3305.8568      6.3754388    
   2805000   303.2213      -602.97453      1278.7159      3387.2767      9.0218667    
   2810000   300.3776      -596.21181      1279.6978      3369.5917      6.9688324    
   2815000   298.48495     -543.87224      1328.6152      3453.9238     -3.791646     
   2820000   304.13038     -561.5078       1279.5118      3437.6687      10.335881    
   2825000   302.62742     -574.99639      1234.8261      3366.0543      13.145959    
   2830000   300.22565     -549.82385      1280.0859      3415.0089     -2.6880488    
   2835000   300.52297     -545.99571      1275.8416      3417.2516      12.10088     
   2840000   299.99792     -554.34258      1291.0709      3419.4388      22.760142    
   2845000   299.58249     -532.87828      1314.5988      3460.716      -0.49659235   
   2850000   300.5338      -543.48414      1296.6147      3440.633       9.5146256    
   2855000   302.08281     -557.04654      1272.1821      3416.4899      5.969633     
   2860000   302.69203     -592.90142      1246.545       3360.4459      18.328011    
   2865000   298.13155     -594.55593      1213.2929      3284.7575      8.195223     
   2870000   306.04138     -605.81798      1274.7801      3405.7158      16.865162    
   2875000   305.16205     -613.02675      1277.053       3392.9165      8.0258058    
   2880000   300.97591     -602.95063      1278.7192      3367.2246      13.90122     
   2885000   301.45413     -603.98596      1247.8838      3339.6303      1.6356511    
   2890000   306.28393     -583.70684      1268.4983      3423.7141      6.4331042    
   2895000   299.48049     -590.75185      1242.8272      3330.1587      7.9747897    
   2900000   307.56077     -589.11472      1299.7667      3460.9926      10.951898    
   2905000   302.76815     -558.02242      1270.934       3420.3947      5.7573394    
   2910000   301.7683      -571.4943       1299.538       3426.5857      11.407339    
   2915000   300.24569     -562.20171      1262.1795      3384.9039      3.6718206    
   2920000   293.20193     -558.03215      1216.7401      3280.6457      3.1729612    
   2925000   306.82464     -558.42963      1228.1915      3413.5198      9.6218603    
   2930000   294.87099     -598.38451      1282.7434      3321.2222      12.71097     
   2935000   305.77696     -614.49643      1259.0639      3378.9566      17.035613    
   2940000   303.70088     -606.54428      1240.1046      3349.3842      12.798039    
   2945000   304.14405     -597.05277      1222.1566      3344.8908      9.2141482    
   2950000   301.31662     -590.20312      1262.3064      3366.6062      10.984805    
   2955000   298.33341     -596.75         1310.5781      3381.6538     -0.0005146739 
   2960000   293.53048     -600.88209      1290.2763      3314.27        6.9461054    
   2965000   298.36242     -651.70116      1309.1845      3325.5684      6.5644977    
   2970000   296.39049     -603.80339      1264.1733      3310.8211      4.1624889    
   2975000   301.44953     -598.37911      1286.3262      3383.6385      14.918541    
   2980000   293.6863      -590.40956      1252.5439      3288.4035      9.8024133    
   2985000   294.16775     -585.80551      1281.6726      3326.4416      7.0455518    
   2990000   298.52317     -598.35122      1270.0885      3341.2599      16.781529    
   2995000   297.52404     -607.17261      1250.4681      3303.8835      6.4195523    
   3000000   298.41523     -610.31284      1324.6819      3382.9264      6.6937358    
   3005000   299.50685     -601.31802      1284.2503      3361.2514      0.93948567   
   3010000   302.59513     -572.07186      1300.9638      3434.8277     -1.316649     
   3015000   300.51234     -556.01641      1303.9918      3435.286       4.2168935    
   3020000   305.76404     -571.11271      1262.2297      3425.3906      3.8255671    
   3025000   297.67604     -560.95785      1326.0277      3427.0171      3.5082724    
   3030000   297.79326     -572.31983      1295.7345      3386.41        4.676642     
   3035000   299.08164     -589.15269      1294.1986      3379.5626      20.812307    
   3040000   299.98352     -564.10953      1273.1602      3391.6323     -4.6636094    
   3045000   307.7037      -588.04808      1234.5378      3398.1086      23.282661    
   3050000   298.7715      -559.81302      1264.3752      3376.3054      8.8556849    
   3055000   303.92141     -581.84235      1249.6419      3385.5955      16.516113    
   3060000   302.41505     -557.74902      1273.9639      3420.5403      2.3218791    
   3065000   299.04892     -585.00632      1222.2132      3311.431       19.88002     
   3070000   296.78632     -601.08591      1309.2054      3362.1105      8.4665252    
   3075000   299.81171     -594.99616      1322.386       3408.4351      8.9683842    
   3080000   301.75427     -635.60233      1274.661       3337.4752      12.299259    
   3085000   300.53628     -608.91966      1256.8295      3335.4345      7.4582445    
   3090000   297.94079     -591.97267      1322.9342      3395.2762     -2.0315642    
   3095000   297.04564     -601.5592       1354.2543      3409.005      -5.9587026    
   3100000   303.64971     -601.74545      1295.8304      3409.4513      9.96159      
   3105000   301.58447     -580.51923      1265.835       3382.2138      10.344046    
   3110000   297.9652      -565.78105      1261.3417      3360.0936      20.48308     
   3115000   295.50404     -554.16225      1245.6846      3334.0466      19.126879    
   3120000   304.26884     -597.85128      1233.6393      3356.6909      15.131407    
   3125000   298.61113     -562.03603      1256.4393      3364.7124      5.8418431    
   3130000   304.80297     -592.73417      1262.4718      3395.4169      11.030852    
   3135000   305.14796     -555.56487      1231.9315      3405.131       14.267807    
   3140000   298.10935     -572.46104      1308.6374      3401.9983      0.25635698   
   3145000   302.0771      -569.90673      1274.1406      3405.5372      6.8587552    
   3150000   296.38706     -557.45201      1313.6784      3406.6469      7.2400178    
   3155000   295.70547     -589.35858      1299.2308      3354.1977      0.93982265   
   3160000   301.7889      -594.82713      1283.8826      3387.7816     -0.15062799   
   3165000   301.02676     -576.04605      1283.1168      3398.9815     -4.8017874    
   3170000   289.75238     -592.58898      1266.0841      3264.5856      2.779167     
   3175000   302.09646     -582.53314      1295.6671      3414.6105      9.6865955    
   3180000   301.53673     -592.41944      1280.5253      3384.5769     -4.2247178    
   3185000   301.72933     -604.11422      1301.0199      3395.0991      0.43968534   
   3190000   298.07851     -579.80285      1261.3552      3347.0986      7.6222317    
   3195000   306.37214     -581.98978      1303.3765      3461.0982     -1.1154194    
   3200000   301.65534     -603.86251      1231.0303      3324.6996      14.084678    
   3205000   309.01561     -572.85207      1265.3142      3455.8127      13.541892    
   3210000   301.2575      -610.53529      1262.9947      3346.4335     -2.2743291    
   3215000   307.29122     -599.92358      1258.356       3406.3627      2.9454106    
   3220000   308.44973     -587.11794      1259.2687      3430.4409      17.118741    
   3225000   293.15025     -572.62733      1269.2473      3318.0956      10.718788    
   3230000   291.82532     -606.53561      1225.7347      3228.8266      14.430172    
   3235000   301.12792     -609.78456      1277.4812      3360.5121     -1.717575     
   3240000   297.67088     -636.44585      1261.9863      3287.4416      6.5702174    
   3245000   303.7         -617.73629      1227.5844      3325.6642     -4.9844992    
   3250000   302.06217     -576.34542      1275.7186      3400.5431      14.429007    
   3255000   299.58289     -564.85991      1255.9577      3370.0969      2.6935904    
   3260000   296.75248     -563.46396      1230.6908      3320.9151      1.6073372    
   3265000   297.10423     -575.82244      1234.9009      3315.9123      3.1010072    
   3270000   302.30305     -570.5282       1355.1874      3487.9831      4.2846892    
   3275000   300.31861     -529.82067      1271.639       3427.3965      3.658684     
   3280000   298.49978     -556.17316      1292.5564      3405.6967      19.310111    
   3285000   307.50962     -552.25385      1281.7809      3479.4104      1.5549371    
   3290000   292.31161     -566.99456      1275.7239      3322.7055      16.363399    
   3295000   300.14426     -563.40001      1270.4357      3391.0548      9.8471317    
   3300000   301.04951     -588.68947      1279.0673      3382.492      -0.43996672   
   3305000   301.96403     -592.09294      1295.6248      3403.8241      11.304637    
   3310000   293.98027     -590.68786      1268.2882      3306.4984      4.3755535    
   3315000   300.37501     -589.66681      1307.8484      3404.2641      25.076464    
   3320000   298.75751     -561.18362      1292.007       3402.4415      15.70375     
   3325000   300.91529     -611.10162      1240.528       3320.3404      21.791626    
   3330000   309.42948     -603.29371      1265.0194      3428.7772      11.438993    
   3335000   304.52987     -572.57744      1306.4372      3457.0968      8.8419814    
   3340000   294.59774     -596.37988      1262.772       3300.8119      8.245056     
   3345000   301.24255     -595.89832      1244.6383      3342.5805      3.5123927    
   3350000   300.89928     -624.58822      1244.7666      3310.9492     -2.7121982    
   3355000   297.33049     -597.17162      1276.9367      3338.6222     -3.876214     
   3360000   301.24383     -565.22939      1269.9559      3398.5784      9.3920622    
   3365000   297.55783     -603.43655      1276.0389      3333.4925      7.685698     
   3370000   300.04472     -609.20191      1256.869       3330.796       12.419975    
   3375000   297.3312      -592.22554      1288.5011      3355.139       6.5069763    
   3380000   296.30992     -594.2113       1284.1569      3339.6764      13.209874    
   3385000   301.35647     -615.56011      1251.6763      3330.9754      4.0030036    
   3390000   297.84912     -606.47221      1274.6768      3331.6996     -3.544163     
   3395000   298.74821     -600.66393      1240.4878      3311.3589      15.466089    
   3400000   304.53772     -585.27832      1335.841       3473.87        12.203781    
   3405000   307.52926     -579.56141      1258.0889      3428.5864      18.88588     
   3410000   299.40645     -589.21959      1263.4019      3351.6036      4.7772741    
   3415000   307.38839     -572.42605      1235.5526      3411.9258      11.330119    
   3420000   303.41313     -557.08583      1305.4594      3461.6243      21.274977    
   3425000   292.446       -639.62898      1257.315       3232.864       4.3452509    
   3430000   302.66759     -631.90393      1295.3739      3370.0537      6.9848635    
   3435000   300.27786     -595.11969      1340.0611      3430.1552     -7.9381446    
   3440000   293.26366     -575.80254      1278.4869      3325.1742     -8.4554965    
   3445000   294.46796     -569.0951       1295.0402      3359.2042      6.1059137    
   3450000   298.5411      -595.43675      1276.389       3350.6352      1.4932255    
   3455000   287.16544     -593.17423      1283.3871      3258.1697      6.6953695    
   3460000   297.8174      -604.47557      1276.3246      3335.0603      6.5460229    
   3465000   307.71592     -593.03658      1285.7434      3444.4349      7.265589     
   3470000   300.20819     -558.91988      1244.6944      3370.3653      10.688411    
   3475000   298.16253     -583.59268      1283.4901      3366.195       7.1091517    
   3480000   298.55951     -561.60533      1277.4123      3385.6545      3.8172041    
   3485000   301.43071     -606.85761      1261.9089      3350.5743      12.470204    
   3490000   305.26567     -587.23751      1244.3926      3386.9721      17.37933     
   3495000   299.22683     -600.52355      1240.2231      3315.5146     -10.408811    
   3500000   302.11631     -636.05941      1255.4048      3320.9994      10.972966    
   3505000   308.27244     -592.95884      1280.2147      3443.9607      17.525723    
   3510000   307.93195     -607.71092      1248.3757      3394.3248      10.207483    
   3515000   296.83142     -572.37654      1266.2807      3348.2985      7.2139546    
   3520000   300.88674     -589.57978      1330.9393      3432.0182      12.491047    
   3525000   300.76324     -536.68933      1260.1702      3413.0352      7.9378958    
   3530000   300.30517     -569.01956      1299.2832      3415.7217      4.3098221    
   3535000   304.39559     -571.37147      1223.3104      3373.9753      3.4036824    
   3540000   296.95343     -566.09983      1262.4847      3351.8702      0.23540804   
   3545000   293.29717     -562.40179      1304.7402      3365.1278      3.3783793    
   3550000   297.8253      -572.87231      1257.7878      3348.1974      17.912398    
   3555000   291.69374     -561.69254      1296.3663      3343.1247      6.7804776    
   3560000   295.59666     -565.01223      1295.3722      3373.7124      7.9461327    
   3565000   308.13298     -558.06542      1262.4638      3459.856       7.6374475    
   3570000   302.92482     -581.39703      1257.8868      3385.3737      6.5921       
   3575000   303.52309     -566.3752       1272.4744      3420.3332      13.645144    
   3580000   305.73494     -578.90762      1340.4675      3495.5732      8.8474301    
   3585000   298.95766     -548.08475      1272.1447      3397.4679      6.0060016    
   3590000   302.38525     -546.61332      1303.9733      3461.419      -0.90615161   
   3595000   301.23881     -554.07721      1256.5903      3396.3202      9.1960649    
   3600000   296.28754     -574.61352      1288.0597      3362.9768      14.374366    
   3605000   297.87407     -549.00319      1246.4276      3361.1424      12.789015    
   3610000   294.49234     -579.84811      1287.1598      3340.7888      3.8854556    
   3615000   305.74703     -583.9911       1273.6045      3423.7348      13.704202    
   3620000   299.39631     -588.76479      1293.2379      3381.8037     -5.9061131    
   3625000   298.87826     -610.77932      1299.9076      3361.8263      9.4371813    
   3630000   294.72177     -584.56791      1317.6324      3368.5933      3.7628931    
   3635000   296.94187     -588.10212      1280.2752      3347.555       7.3862393    
   3640000   298.26871     -590.31083      1288.2615      3365.1978      8.0130394    
   3645000   297.22627     -568.90277      1296.5307      3385.5532      8.4342088    
   3650000   299.10407     -557.60523      1294.1089      3411.2209      1.3186395    
   3655000   301.73163     -593.40872      1256.3571      3361.1623      1.9349246    
   3660000   303.26525     -602.08689      1297.1225      3406.9639      1.180852     
   3665000   296.36605     -617.25927      1322.7277      3355.7011     -4.2203586    
   3670000   299.6934      -575.56415      1291.9817      3396.4048      12.474786    
   3675000   300.30137     -574.55625      1247.474       3358.3418      13.996781    
   3680000   304.03485     -575.90249      1316.6378      3459.5458      9.4739294    
   3685000   296.70693     -592.32441      1248.4585      3309.4151      1.7734245    
   3690000   299.79196     -567.53119      1301.2213      3414.5587      9.1221997    
   3695000   302.15893     -605.15132      1296.2314      3393.1151      8.1932079    
   3700000   297.87433     -631.43325      1298.717       3331.0041      13.352481    
   3705000   313.04036     -592.4975       1276.8076      3483.6517      6.6807446    
   3710000   303.18202     -612.78202      1243.4709      3341.873      -3.1391568    
   3715000   301.70479     -577.41019      1287.8964      3408.4602      7.616589     
   3720000   301.28507     -593.91898      1330.9613      3431.263       4.6249082    
   3725000   298.19398     -589.46175      1326.8565      3403.9737      6.5840679    
   3730000   310.82206     -593.2792       1281.3603      3467.5856      6.8206477    
   3735000   300.70962     -568.42637      1340.3926      3461.041       4.6205421    
   3740000   297.45722     -580.12203      1245.3967      3325.2651      4.2813464    
   3745000   298.52554     -566.9691       1258.8157      3361.3904      4.0080132    
   3750000   290.04331     -541.43745      1280.2649      3332.5195      1.9277599    
   3755000   297.85658     -595.79627      1293.5962      3361.3616      2.6927449    
   3760000   298.51073     -591.19308      1251.8434      3330.0617      7.3612105    
   3765000   292.5034      -567.39028      1273.0531      3321.354       9.0842799    
   3770000   301.82122     -592.89479      1310.2531      3416.3735      8.1128167    
   3775000   304.77465     -589.88633      1263.2657      3398.8053     -0.15374867   
   3780000   296.93838     -605.78118      1295.9208      3345.4904     -0.012899094  
   3785000   297.63149     -616.81463      1268.8949      3313.6291      13.301873    
   3790000   297.47917     -626.79625      1243.662       3277.0524      12.403808    
   3795000   296.77244     -604.60014      1263.0871      3312.3538      27.884384    
   3800000   300.88774     -597.74044      1290.5089      3383.436       1.3092133    
   3805000   309.97752     -584.73134      1262.5304      3449.7514      1.5355062    
   3810000   297.79979     -595.28777      1281.597       3349.3631     -0.32033159   
   3815000   297.44484     -579.94838      1276.7714      3356.7027      3.8448109    
   3820000   288.32765     -568.68072      1271.1639      3280.833       9.9318543    
   3825000   293.4473      -573.11154      1242.8653      3293.8858      6.5231395    
   3830000   295.96226     -582.43061      1295.172       3359.3632      11.327216    
   3835000   293.49833     -563.62196      1258.1216      3319.088       4.9678406    
   3840000   294.69658     -575.66682      1321.1472      3380.784       22.602226    
   3845000   298.37267     -530.36601      1298.9109      3436.7216      2.5199627    
   3850000   305.73915     -546.51528      1308.5966      3496.1324     -1.4017449    
   3855000   296.34583     -563.13913      1264.3762      3351.289       6.1954118    
   3860000   292.89368     -585.39719      1278.722       3312.5061      12.057916    
   3865000   299.02471     -557.35087      1289.1263      3405.7831      7.3259739    
   3870000   294.67265     -577.54367      1246.2092      3303.7551     -5.1094759    
   3875000   296.97321     -578.9487       1266.0893      3342.8028      8.4728926    
   3880000   297.52839     -576.05081      1283.876       3368.452       10.335278    
   3885000   298.67114     -619.20092      1319.4736      3371.1185      2.6349038    
   3890000   295.92639     -637.54376      1275.0727      3283.83        0.38954998   
   3895000   297.71282     -667.00191      1281.0476      3276.3218      9.223123     
   3900000   297.6518      -606.26816      1255.656       3311.1183      3.8971926    
   3905000   304.52331     -613.08459      1302.0314      3412.1252      7.3322555    
   3910000   298.75031     -566.2776       1249.4309      3354.7071      2.7957553    
   3915000   298.8739      -554.11795      1288.2815      3406.8224     -4.1011317    
   3920000   299.45445     -573.23846      1231.1169      3335.7289     -0.12762617   
   3925000   291.9199      -588.43804      1284.2153      3306.2506      4.6399753    
   3930000   301.92046     -618.77254      1236.7097      3317.8398      14.129563    
   3935000   298.80308     -581.23368      1304.1143      3394.9063     -2.1405823    
   3940000   299.48966     -597.83029      1234.3711      3314.7061      14.128005    
   3945000   295.85569     -560.12472      1280.3845      3365.9286     -0.40443168   
   3950000   293.19462     -566.92051      1280.6717      3335.6236      4.1133663    
   3955000   299.32831     -538.30622      1326.8639      3465.2802      8.3471059    
   3960000   294.31863     -545.21251      1358.2987      3445.01        3.281294     
   3965000   290.48816     -557.58145      1318.6181      3358.7067     -5.8153386    
   3970000   299.53946     -555.94694      1261.9685      3384.6323      13.881727    
   3975000   300.29952     -585.35138      1314.1836      3414.2397     -8.412085     
   3980000   298.90458     -586.59993      1294.0484      3380.3818      3.8435177    
   3985000   305.75304     -580.44402      1283.6585      3437.3897      2.0073267    
   3990000   302.99054     -559.86824      1246.668       3396.2715      12.684       
   3995000   297.94996     -580.11231      1308.0213      3392.3057      3.4599924    
   4000000   289.90569     -559.41659      1249.5918      3282.6366      8.4563136    
   4005000   302.34968     -572.16462      1318.766       3450.3423      0.11278839   
   4010000   296.40006     -558.98008      1254.9958      3346.5525      14.45075     
   4015000   299.55297     -552.38477      1280.7315      3407.0782      19.553763    
   4020000   303.95386     -551.86766      1244.163       3410.3815     -2.0929337    
   4025000   295.93534     -583.07778      1261.6972      3325.0005      12.760269    
   4030000   296.7273      -599.49678      1299.5583      3353.5246      4.5254682    
   4035000   298.26858     -569.29906      1291.2592      3389.2061     -1.2491334    
   4040000   304.64912     -555.36809      1295.6771      3464.6124      3.2641843    
   4045000   295.38397     -566.30711      1262.9948      3338.1382      0.03581806   
   4050000   301.86793     -572.82962      1267.6079      3394.2112      0.71441028   
   4055000   299.84437     -536.83844      1309.5853      3454.0842     -9.7771402    
   4060000   297.62693     -522.73499      1268.9146      3407.6877      3.5824015    
   4065000   300.44446     -551.74882      1192.2469      3327.2017      0.0064542359 
   4070000   304.30701     -583.20962      1281.2635      3419.298       2.5166903    
   4075000   298.56214     -582.38365      1244.2597      3331.7472      4.4651906    
   4080000   293.7365      -588.97544      1280.7215      3318.4642     -2.1036429    
   4085000   296.4884      -592.25557      1256.296       3315.3673      10.96534     
   4090000   310.14107     -563.05133      1268.1274      3478.4909      15.981839    
   4095000   303.7791      -593.50231      1251.8474      3374.8685     -1.1967191    
   4100000   296.5855      -610.10572      1289.366       3331.4554      12.248099    
   4105000   295.13438     -543.63605      1261.8343      3357.4169      10.176895    
   4110000   298.93992     -587.61128      1283.538       3369.1761      7.8178745    
   4115000   296.27129     -583.31554      1258.5206      3324.5904      1.1483975    
   4120000   299.35903     -585.80797      1254.8364      3346.0257      16.468494    
   4125000   305.9075      -586.11126      1238.7737      3388.2189      3.0912736    
   4130000   304.99704     -584.18361      1233.3555      3376.5867      5.6543827    
   4135000   301.92116     -591.06942      1300.2384      3409.0779      7.004916     
   4140000   292.84838     -601.51024      1319.5585      3336.8244      1.9342832    
   4145000   301.03228     -616.17843      1278.9345      3354.7162      7.7354324    
   4150000   301.14785     -589.84468      1297.7992      3400.9481      6.5974659    
   4155000   297.86469     -537.76966      1266.1652      3392.0297      0.056100542  
   4160000   302.31314     -539.63291      1283.4796      3447.2609     -1.1196774    
   4165000   304.31997     -533.16454      1304.4861      3492.6817      1.2573105    
   4170000   293.59191     -536.7794       1331.5626      3420.2083      12.632015    
   4175000   290.3554      -506.87394      1270.0882      3359.6971     -0.014688197  
   4180000   292.55211     -524.87445      1289.7861      3381.0385      12.073582    
   4185000   305.82216     -516.22158      1272.285       3490.8567      8.3488147    
   4190000   297.54129     -555.2175       1236.2175      3341.7422      5.8682598    
   4195000   305.74515     -550.20597      1264.8441      3448.7427      4.9241796    
   4200000   293.03639     -554.4893       1281.1363      3347.1044      18.379594    
   4205000   304.95922     -569.56805      1262.4071      3419.9156      10.466663    
   4210000   292.70027     -544.1484       1262.5237      3335.827       12.396389    
   4215000   303.28392     -558.32148      1281.5228      3435.2965      13.641306    
   4220000   298.92443     -548.04332      1297.0699      3422.1374     -1.2356164    
   4225000   301.44561     -540.60282      1274.2532      3429.3067     -7.7944806    
   4230000   302.48307     -534.02564      1279.7436      3450.6517      2.3930343    
   4235000   304.29126     -566.59496      1334.9599      3489.4683     -4.5808282    
   4240000   299.55789     -594.54809      1258.1329      3342.3603      0.78312005   
   4245000   302.26354     -575.457        1257.7541      3385.2678      5.7846759    
   4250000   300.76059     -572.95436      1286.0234      3402.5996      5.3278458    
   4255000   309.24968     -612.9009       1235.7216      3388.2644      19.042543    
   4260000   306.76557     -613.38184      1307.1662      3437.0141      1.4347302    
   4265000   299.22226     -613.58973      1327.7525      3389.9369     -2.8753351    
   4270000   302.34988     -592.96256      1342.171       3452.9511     -1.7862166    
   4275000   301.3786      -621.85471      1285.7182      3358.9206      5.5877195    
   4280000   298.97477     -620.43965      1302.4272      3355.5485      2.8058943    
   4285000   292.88157     -587.31343      1301.1243      3332.8839     -1.5496309    
   4290000   298.85794     -579.13865      1264.5541      3357.9317     -3.854003     
   4295000   296.81363     -533.07298      1313.0061      3434.1683     -1.9043457    
   4300000   295.64277     -516.31369      1303.8231      3431.2742      9.1525964    
   4305000   297.87772     -522.31334      1290.5404      3431.9778     -7.3999477    
   4310000   301.4908      -549.22164      1248.2216      3395.0604      5.9629329    
   4315000   294.99772     -573.05393      1319.3446      3384.2872     -2.5967649    
   4320000   296.46292     -582.63195      1284.8698      3353.3368      13.879934    
   4325000   299.51676     -567.7086       1253.7923      3364.4915      0.34079204   
   4330000   302.01187     -576.76293      1264.5774      3388.5345     -4.1656181    
   4335000   300.56449     -543.36989      1296.2288      3440.6359     -1.3759776    
   4340000   304.69642     -571.78408      1288.7916      3441.734       13.975096    
   4345000   295.56522     -572.62602      1277.6799      3348.1253     -2.412518     
   4350000   296.23495     -608.48612      1246.9142      3287.4884      10.69756     
   4355000   304.07094     -614.37432      1243.0001      3347.759      -1.3618707    
   4360000   310.73789     -601.14155      1250.758       3428.3684      7.6227016    
   4365000   305.68155     -599.07182      1256.1493      3390.6133      4.9375384    
   4370000   307.69742     -617.23385      1290.9547      3425.2836      6.9868747    
   4375000   306.26579     -592.30424      1286.8001      3433.2564      12.881679    
   4380000   295.6434      -565.32383      1264.7398      3343.1864      2.5210302    
   4385000   302.05212     -561.27693      1302.9276      3442.7306      2.2306991    
   4390000   300.54583     -567.50188      1261.6166      3381.7248      15.315262    
   4395000   299.64845     -555.53349      1245.7283      3369.7802      7.6272126    
   4400000   306.46315     -556.50342      1279.8231      3463.845       3.1538242    
   4405000   300.47319     -572.21078      1261.8101      3376.5598      7.9610983    
   4410000   304.82077     -601.25358      1283.3443      3407.9292      3.634952     
   4415000   308.64606     -553.24341      1273.6535      3480.456       11.629967    
   4420000   299.34737     -600.0696       1234.8167      3311.64        7.0617469    
   4425000   297.56908     -613.4363       1301.139       3348.6935      3.8581873    
   4430000   293.14669     -601.94523      1275.2097      3294.7082     -0.27635972   
   4435000   295.85713     -571.5281       1269.2574      3343.411       1.7022115    
   4440000   297.7554      -592.59504      1316.5506      3386.6125     -7.4821525    
   4445000   309.31332     -601.25302      1257.7933      3422.553       5.5876482    
   4450000   299.38632     -567.73833      1220.5786      3330.0815      7.5375559    
   4455000   309.15212     -610.66794      1282.1712      3436.0745      6.0850652    
   4460000   300.35892     -568.28019      1274.206       3391.8645      5.0775323    
   4465000   293.46721     -574.18071      1255.7816      3305.911       14.693419    
   4470000   303.61656     -573.39376      1285.3799      3427.056       6.6164005    
   4475000   295.24684     -577.90357      1217.5121      3279.8328      4.862458     
   4480000   294.35631     -603.52228      1309.6799      3338.4183      12.156352    
   4485000   296.72858     -595.99049      1236.3525      3293.8366      8.7104415    
   4490000   298.49236     -564.86227      1261.667       3366.0518      8.5025203    
   4495000   290.79818     -590.40926      1245.8891      3255.9222      2.7803575    
   4500000   305.73705     -583.42492      1252.2965      3402.9038      5.0129509    
   4505000   306.36907     -520.26653      1311.901       3531.3185      6.6112107    
   4510000   294.21796     -524.18655      1283.2656      3390.1026      6.1032665    
   4515000   300.65197     -501.64022      1243.7815      3430.7005      5.6972217    
   4520000   293.4979      -551.56773      1293.0125      3366.0293      7.629409     
   4525000   306.39505     -592.28828      1291.3908      3439.0189      12.649925    
   4530000   298.82373     -583.98578      1210.3211      3298.5456      8.2144938    
   4535000   297.51053     -556.57007      1278.4764      3382.3735      1.2141539    
   4540000   293.97393     -514.20703      1262.8247      3377.459       11.415774    
   4545000   304.18773     -531.0131       1259.2479      3448.4123      14.029601    
   4550000   298.06928     -511.00759      1232.7723      3387.2284      12.75118     
   4555000   308.36857     -517.3665       1290.7879      3530.9858      1.5644901    
   4560000   307.45396     -523.69588      1258.8345      3484.5242      5.266102     
   4565000   294.30605     -519.76231      1275.2434      3387.2923      1.4834144    
   4570000   299.56474     -526.80338      1326.7752      3478.8086      4.9366372    
   4575000   300.48414     -536.00917      1285.1615      3436.2107      14.446561    
   4580000   299.499       -588.0958       1307.3543      3397.5074      16.714389    
   4585000   300.35235     -570.71156      1273.1343      3388.3026      5.6125746    
   4590000   299.81201     -594.20929      1276.7315      3363.5701      5.0437738    
   4595000   296.87847     -625.06696      1271.9174      3301.6654      1.2615674    
   4600000   299.66838     -614.59194      1237.1696      3302.3411      10.099242    
   4605000   301.08721     -587.43597      1210.3113      3315.3267      1.1125806    
   4610000   307.28117     -591.25466      1271.3567      3427.9425      12.063674    
   4615000   300.65046     -604.01609      1315.1199      3399.6495     -12.735755    
   4620000   296.50518     -580.30535      1294.4547      3365.6262      1.7688126    
   4625000   295.97215     -585.3654       1299.3144      3360.6593      7.0991459    
   4630000   306.17672     -583.54813      1284.4424      3438.8582      2.4644771    
   4635000   294.06574     -584.12399      1275.2495      3320.7878      1.810404     
   4640000   306.31294     -584.44105      1253.5283      3408.2693      9.2334373    
   4645000   305.0516      -571.95131      1244.8048      3400.7561      10.942413    
   4650000   304.31623     -592.65919      1243.4262      3372.0936      12.193011    
   4655000   299.11579     -570.24774      1302.6504      3407.2247     -2.1875742    
   4660000   294.18937     -582.6351       1228.2274      3276.3603      5.635411     
   4665000   302.79724     -553.44476      1305.5777      3459.876       20.800339    
   4670000   302.85689     -560.21477      1274.0423      3422.1041      4.372364     
   4675000   294.23943     -597.1191       1273.3483      3307.4447      22.171385    
   4680000   304.3529      -603.56211      1242.2827      3360.3752      15.565459    
   4685000   298.88181     -587.76273      1235.8815      3320.8485     -0.76035742   
   4690000   307.41701     -582.20664      1259.8891      3426.7376      8.2294432    
   4695000   298.53238     -609.52859      1303.0015      3363.0779      2.2078931    
   4700000   296.121       -592.92945      1277.65        3332.7619     -0.53386      
   4705000   297.52862     -607.88052      1248.6819      3301.4303     -8.4294077    
   4710000   307.29631     -598.41185      1261.5475      3411.1114      21.82439     
   4715000   292.38645     -616.77532      1311.1112      3308.9813      9.7473019    
   4720000   302.82548     -604.80877      1280.5708      3383.7577      5.1704023    
   4725000   298.90118     -614.87036      1260.9046      3318.9371      9.6904204    
   4730000   297.40979     -584.81087      1289.6186      3364.374       13.857309    
   4735000   297.48577     -645.44656      1237.952       3252.7512      19.376073    
   4740000   300.6797      -614.3948       1273.7732      3348.1857     -1.1471273    
   4745000   298.03193     -606.46865      1348.4603      3407.1213      9.1842558    
   4750000   304.12198     -618.62355      1281.6418      3382.6078     -0.12811292   
   4755000   302.3367      -625.54967      1288.63        3366.7052      2.1800108    
   4760000   299.00274     -578.9061       1241.8147      3336.7197      6.1933391    
   4765000   300.42657     -569.5944       1271.9871      3388.9363      1.4099407    
   4770000   296.88803     -620.07684      1294.3178      3329.1414      6.1648109    
   4775000   296.3655      -582.04896      1260.3406      3328.5194      2.2316723    
   4780000   297.01571     -582.00157      1291.8121      3365.8528      5.8542367    
   4785000   297.98492     -590.35694      1255.7934      3330.1457     -0.87128954   
   4790000   299.20349     -565.83073      1266.3465      3376.1221      16.422698    
   4795000   300.69438     -613.25887      1295.4768      3371.1564      12.657501    
   4800000   294.66611     -597.05453      1295.5493      3333.5258      8.8749845    
   4805000   292.23279     -566.25417      1283.6568      3330.6739      1.0182688    
   4810000   300.34623     -573.12795      1287.6415      3400.3387      4.7277689    
   4815000   307.53435     -624.66913      1235.9248      3361.3601     -1.4331463    
   4820000   304.96125     -595.96925      1250.3488      3381.4743      9.2503232    
   4825000   299.06223     -590.45458      1267.0989      3350.9875     -1.0709121    
   4830000   301.23562     -576.78645      1344.7247      3461.7168      10.017398    
   4835000   306.10314     -581.3869       1271.4206      3427.3396      3.6678194    
   4840000   305.891       -574.08692      1302.3288      3463.6508      3.3019921    
   4845000   293.67655     -505.55135      1261.089       3381.7196     -0.52689646   
   4850000   300.42643     -541.38494      1238.9131      3384.0705      7.2704633    
   4855000   300.60668     -529.0207       1266.1356      3425.2692      12.63891     
   4860000   296.31849     -484.84625      1303.5442      3468.5053      18.250056    
   4865000   307.94281     -537.46254      1251.2066      3467.5011      12.567189    
   4870000   302.6167      -507.35568      1241.4418      3440.2148      1.705506     
   4875000   300.03991     -525.61346      1277.4246      3434.8972      7.2890696    
   4880000   295.86422     -517.10582      1273.7981      3402.4374      1.9020326    
   4885000   309.61        -535.13356      1246.2119      3479.7442      13.858083    
   4890000   302.16622     -566.32473      1264.9904      3400.766      -5.6208033    
   4895000   298.81109     -579.57329      1284.2776      3376.8016      0.97145589   
   4900000   297.96253     -528.54776      1281.4214      3417.3827     -1.9439063    
   4905000   307.26563     -523.57639      1279.6778      3503.8029      3.8589562    
   4910000   303.55941     -512.91278      1262.2023      3463.8483      13.670963    
   4915000   302.12538     -531.47156      1271.1867      3441.4503      11.682486    
   4920000   299.95818     -550.23978      1258.2383      3390.3535      2.0124102    
   4925000   299.17681     -541.6054       1309.0942      3442.8565      9.1750419    
   4930000   302.3603      -515.60922      1257.8837      3446.1104      8.5435274    
   4935000   298.41648     -557.64955      1264.6415      3375.5605      11.628724    
   4940000   300.35326     -536.43792      1257.596       3407.0462      13.041262    
   4945000   304.82785     -551.05835      1263.4199      3438.2633      0.73405666   
   4950000   298.98454     -550.88131      1255.0059      3377.773       7.2496086    
   4955000   302.48553     -541.86841      1285.407       3448.4943      7.7788       
   4960000   302.98962     -560.68266      1275.9988      3424.7796      1.5177125    
   4965000   295.27411     -591.42113      1314.1049      3363.1518      13.58443     
   4970000   293.28125     -603.36198      1296.5941      3315.8792     -3.6307829    
   4975000   294.57104     -584.43126      1333.1742      3382.9238     -6.5914552    
   4980000   300.6092      -584.83169      1310.4536      3413.7987      18.380259    
   4985000   299.86994     -626.49018      1274.3711      3329.4469      8.5751698    
   4990000   305.02107     -580.0246       1273.6353      3421.2403     -1.4544751    
   4995000   301.71188     -556.19974      1272.0623      3413.8999      6.3922171    
   5000000   304.62796     -558.84351      1318.721       3483.9918      0.7261477    
   5005000   296.84698     -541.42921      1304.8692      3417.9734      4.6339169    
   5010000   290.23494     -599.35367      1323.4771      3319.5291     -4.6126761    
   5015000   306.34983     -576.353        1232.7885      3395.9475      5.0766432    
   5020000   293.25747     -590.95389      1277.8234      3309.3039      8.0807839    
   5025000   300.74448     -608.40194      1260.963       3341.9476      14.274966    
   5030000   299.01986     -588.6892       1274.4485      3359.7235      9.050662     
   5035000   302.66654     -595.14481      1323.9753      3435.4049      9.2964101    
   5040000   311.87442     -566.03571      1276.8127      3499.6922      9.7505992    
   5045000   300.43211     -580.313        1255.5106      3361.7908      7.798007     
   5050000   294.7114      -568.26426      1302.5447      3369.7165     -0.56974419   
   5055000   298.48944     -557.46867      1331.7112      3443.4635      9.2436994    
   5060000   300.63187     -560.61506      1287.9222      3415.6867      8.2479402    
   5065000   293.37415     -555.23705      1299.3138      3367.5546      4.0066515    
   5070000   300.0581      -573.90841      1292.6519      3401.9921      11.847077    
   5075000   298.02237     -567.88702      1234.7569      3331.9141     -1.1384758    
   5080000   301.99829     -541.33466      1223.1912      3382.4551      5.9497926    
   5085000   301.94782     -565.6734       1290.693       3425.1669      10.795277    
   5090000   298.59062     -560.51454      1240.7648      3350.3759      16.950309    
   5095000   305.99515     -583.03463      1275.1488      3428.4544      1.611939     
   5100000   307.29632     -609.67709      1242.0438      3380.3425      3.8078059    
   5105000   307.80426     -624.91275      1269.4465      3397.0519      19.041147    
   5110000   298.98558     -620.68563      1307.4915      3360.4636      12.116845    
   5115000   287.24122     -605.4965       1315.2883      3278.4264      6.3179807    
   5120000   297.3907      -582.19831      1290.954       3368.1513      3.1268342    
   5125000   305.01423     -587.65578      1299.6247      3439.5373      3.2951637    
   5130000   296.47991     -537.39488      1332.8955      3446.7515     -4.9297321    
   5135000   301.20445     -564.69062      1286.3419      3415.1511      16.146673    
   5140000   302.19657     -562.3096       1245.348       3385.4101      7.8018245    
   5145000   310.26402     -599.48381      1319.2376      3494.2681      11.134636    
   5150000   303.93281     -580.41035      1246.3688      3383.8563      14.102113    
   5155000   298.18427     -563.77499      1281.5642      3384.2812      11.044053    
   5160000   291.71626     -562.91404      1308.3457      3354.084       5.0171623    
   5165000   294.70982     -569.96828      1257.3858      3322.8395      8.9856618    
   5170000   299.87756     -574.14385      1235.7007      3343.191      -2.2368928    
   5175000   305.23537     -592.19575      1254.0254      3391.3757      13.290723    
   5180000   304.59936     -595.31956      1310.8055      3439.3444      16.282104    
   5185000   300.97411     -563.34557      1292.094       3420.1884      7.0068774    
   5190000   290.87113     -569.38341      1291.2399      3322.9513      14.621246    
   5195000   298.21163     -591.61187      1260.1855      3335.3103      15.49889     
   5200000   299.96157     -562.85899      1252.572       3372.0984      5.5680146    
   5205000   297.514       -559.44382      1244.9052      3345.9596     -6.3957109    
   5210000   294.32126     -560.45521      1244.7208      3316.213       4.67437      
   5215000   300.11076     -565.10202      1224.9619      3343.5794      8.8824213    
   5220000   299.18587     -566.83392      1269.5945      3378.2093      12.988898    
   5225000   294.24867     -626.54695      1287.5862      3292.3375      7.064772     
   5230000   295.54696     -655.84893      1284.2727      3271.3319      5.9896121    
   5235000   312.33525     -617.3243       1280.1131      3455.8249      4.5310515    
   5240000   296.97814     -573.86319      1298.5741      3380.4172     -0.83757278   
   5245000   293.82999     -602.66722      1259.9595      3284.8465      1.848792     
   5250000   306.91571     -613.51318      1281.1984      3412.2575     -5.4829131    
   5255000   307.7299      -572.02121      1254.5965      3434.4284      21.154482    
   5260000   296.37049     -557.65018      1267.6643      3360.2865      9.244542     
   5265000   301.95321     -594.97394      1277.8919      3383.1134      5.03136      
   5270000   305.68654     -581.79144      1273.4217      3425.2108      2.9276685    
   5275000   310.40834     -556.94907      1237.1433      3455.9991      14.694195    
   5280000   295.8991      -573.78502      1270.3986      3342.6706      6.3076635    
   5285000   300.56012     -571.20768      1255.418       3371.9482      4.1449064    
   5290000   299.32703     -572.78224      1261.9411      3365.8699      5.8019028    
   5295000   302.4328      -586.02792      1301.3409      3419.7971      7.2822604    
   5300000   297.04386     -592.73046      1236.8841      3300.4476     -4.2843616    
   5305000   302.68974     -569.51701      1276.6496      3413.9144      17.897207    
   5310000   301.40832     -580.11761      1285.0102      3400.2154      3.6707486    
   5315000   295.15839     -616.42943      1269.5471      3292.5509      7.9239068    
   5320000   304.03536     -619.82605      1368.4413      3467.4303      7.5793981    
   5325000   301.62739     -583.2444       1249.9792      3364.0167      7.0542934    
   5330000   299.42619     -581.62884      1269.6232      3365.5921      8.8531383    
   5335000   302.64874     -554.34816      1319.4452      3471.5123      9.6212358    
   5340000   314.29119     -501.88258      1257.1073      3565.7518      14.201528    
   5345000   297.09268     -547.03828      1274.6047      3384.297       9.8512339    
   5350000   302.96603     -521.90081      1303.0774      3490.4291      12.415814    
   5355000   297.27077     -547.33561      1265.0658      3376.0533      3.6807343    
   5360000   298.80723     -597.8457       1286.3169      3360.534       13.193829    
   5365000   300.42503     -602.50625      1261.9198      3345.9434      3.4463279    
   5370000   288.98787     -543.253        1278.0318      3319.0327      7.297606     
   5375000   303.59653     -586.0569       1277.3128      3406.1467      3.6641817    
   5380000   295.79587     -601.92202      1280.6118      3323.8236      8.2842439    
   5385000   296.97124     -571.51976      1226.7713      3310.8961      0.24999189   
   5390000   303.45464     -567.49148      1246.7852      3392.9157      10.467749    
   5395000   305.36939     -576.69017      1279.1121      3433.1663     -1.3149766    
   5400000   301.41146     -560.9329       1290.8834      3425.3014      0.87239664   
   5405000   299.41178     -611.05956      1275.3937      3341.8031      2.3715996    
   5410000   303.25703     -636.14073      1274.4098      3350.1239      10.092981    
   5415000   297.86129     -610.74654      1272.0601      3324.9173      5.7900151    
   5420000   293.69527     -608.32316      1296.6297      3314.656       10.053646    
   5425000   300.30231     -604.03793      1246.9575      3328.352       19.21736     
   5430000   301.97527     -592.22958      1238.8865      3347.0497      7.9137277    
   5435000   296.79108     -568.12849      1282.0191      3367.9241      10.009906    
   5440000   299.59041     -588.66142      1302.3885      3392.7934     -7.5802265    
   5445000   304.22869     -572.58944      1305.5712      3453.5256      12.017077    
   5450000   293.58159     -576.95139      1236.4474      3284.8289      6.1864196    
   5455000   293.59433     -577.70146      1276.3732      3324.1185      13.003084    
   5460000   301.20711     -579.48342      1266.048       3380.0881      11.868511    
   5465000   305.47435     -634.41195      1238.2932      3335.5643     -2.8966284    
   5470000   298.23941     -593.59736      1239.9218      3313.3096      2.5404759    
   5475000   299.39227     -576.02532      1294.7676      3396.0368      8.2801287    
   5480000   296.01682     -606.93629      1316.1701      3356.3435      6.5511566    
   5485000   296.84142     -561.69398      1266.726       3359.5157      2.1377183    
   5490000   295.15449     -564.82491      1285.2141      3359.7875      2.1637718    
   5495000   299.08673     -574.76486      1266.3434      3366.1408      4.5847178    
   5500000   290.42232     -528.41165      1251.399       3320.0687      8.837631     
   5505000   301.02359     -537.52016      1304.6358      3458.998       10.08246     
   5510000   301.01572     -550.26101      1253.1659      3394.717       9.6148094    
   5515000   297.96915     -560.29906      1345.0366      3449.3059      14.314556    
   5520000   301.4008      -550.8213       1306.2927      3450.727      -1.6831328    
   5525000   296.5497      -577.59774      1262.189       3336.4662      12.931742    
   5530000   297.55803     -531.19075      1277.7414      3407.4426      4.8746052    
   5535000   299.95479     -550.66858      1230.2924      3361.9485      3.4896099    
   5540000   307.47562     -562.45472      1258.5011      3445.6256      4.7018095    
   5545000   298.12191     -559.24161      1251.2449      3357.9376      15.034471    
   5550000   299.4986      -575.61334      1310.9129      3413.5449      3.1450577    
   5555000   298.37189     -569.92697      1244.2576      3342.5004      14.41404     
   5560000   301.26807     -559.9947       1242.5344      3376.6084      9.3537563    
   5565000   298.83088     -550.57192      1242.1439      3363.8462      5.8729884    
   5570000   305.88103     -527.36902      1274.4516      3482.4024      5.5286352    
   5575000   298.05277     -564.84321      1291.6474      3392.1203      11.163191    
   5580000   308.92449     -577.31343      1283.2137      3468.436       13.893972    
   5585000   297.49207     -564.80858      1296.2582      3391.7517      3.212286     
   5590000   295.03652     -541.15346      1292.7828      3389.9729      16.943389    
   5595000   294.09526     -615.66678      1291.581       3305.8405      5.9894092    
   5600000   298.28206     -643.32132      1273.7185      3297.7637      8.3028052    
   5605000   292.80055     -642.48201      1250.0347      3225.9012      4.8288253    
   5610000   301.84917     -637.46414      1295.1411      3356.9421      1.9429265    
   5615000   295.15114     -631.7282       1267.8751      3275.5154      4.446304     
   5620000   294.47991     -635.66191      1255.2624      3252.9666     -1.8972498    
   5625000   300.32275     -594.45763      1275.2283      3366.3859      7.3757998    
   5630000   292.93771     -586.70756      1319.8114      3352.6789     -3.6435658    
   5635000   304.75506     -596.2103       1279.1141      3408.1546      9.0782587    
   5640000   301.29907     -570.8477       1265.8109      3389.309       10.923999    
   5645000   304.1744      -623.71292      1254.914       3351.2594     -2.0856228    
   5650000   300.29519     -601.4605       1302.1144      3386.0227      3.0356895    
   5655000   291.34893     -504.37479      1305.335       3406.3276      4.1658528    
   5660000   295.64523     -531.86459      1217.614       3329.5362      14.13202     
   5665000   295.95828     -576.86012      1279.3091      3349.0353      6.4380697    
   5670000   293.968       -554.29728      1300.13        3374.621       15.861777    
   5675000   307.38512     -564.04766      1331.3756      3516.0978      7.6420124    
   5680000   298.73541     -543.36997      1281.5067      3409.5573      9.4695589    
   5685000   306.74085     -544.33063      1337.1574      3535.8354      1.7262072    
   5690000   296.41416     -566.89453      1266.9732      3350.7416      16.491026    
   5695000   304.32262     -596.45706      1242.0146      3366.9413     -1.7100741    
   5700000   299.66581     -561.85556      1323.8935      3441.7785      5.3616866    
   5705000   298.63813     -574.74763      1260.4617      3356.2648      11.550204    
   5710000   295.67093     -605.07706      1216.0223      3254.9618      2.3711682    
   5715000   294.40155     -614.30643      1248.0568      3266.4157      3.7923585    
   5720000   299.82831     -592.28085      1278.465       3367.3778      2.8199388    
   5725000   301.13258     -577.99477      1291.063       3405.9253      18.834227    
   5730000   303.97415     -566.14643      1288.6141      3440.7352      6.0565561    
   5735000   299.13513     -519.04268      1285.5228      3441.4751     -4.422737     
   5740000   299.97734     -582.8082       1355.6978      3455.416       6.3694446    
   5745000   298.43551     -559.65203      1316.3664      3425.4531      8.9892091    
   5750000   300.35011     -553.05687      1284.7377      3417.5407      14.625533    
   5755000   303.95428     -606.29325      1251.4338      3363.2305      5.2074035    
   5760000   307.74699     -607.49956      1288.8284      3433.3347      14.159187    
   5765000   305.06693     -596.38472      1273.5477      3405.2027      4.5816042    
   5770000   306.99454     -601.85512      1291.7954      3435.2175      14.350706    
   5775000   301.2234      -577.53278      1275.178       3391.3144      4.5057686    
   5780000   299.38825     -586.32564      1262.7252      3353.6581     -0.82057863   
   5785000   299.47174     -600.36512      1270.8552      3348.4952     -6.2596278    
   5790000   292.99306     -599.9351       1268.4489      3288.5837      11.033384    
   5795000   301.03684     -592.55475      1276.5048      3375.9509     -2.1022442    
   5800000   307.48308     -565.13903      1278.351       3462.858       10.6996      
   5805000   302.20967     -593.44108      1303.5551      3412.6029     -4.0197121    
   5810000   301.02184     -568.81386      1238.2297      3361.2827      14.945235    
   5815000   310.33798     -579.6221       1307.9495      3503.5031      1.8267863    
   5820000   296.15573     -545.73471      1334.9412      3437.5584     -7.5616155    
   5825000   296.66103     -562.98166      1288.0751      3377.964      -0.4735561    
   5830000   296.08391     -563.63398      1277.7644      3361.8401      8.7379769    
   5835000   303.5867      -568.82747      1260.8903      3406.8657      1.9799313    
   5840000   296.15836     -540.76706      1265.8191      3373.4275      0.1594039    
   5845000   295.84038     -541.27846      1262.5941      3366.8476      2.6749102    
   5850000   304.67971     -590.10163      1259.6765      3394.1518      7.1884471    
   5855000   291.47583     -577.80796      1275.4268      3304.1211      10.097586    
   5860000   304.07426     -591.45301      1290.3585      3418.0684     -1.2923098    
   5865000   296.88333     -619.99086      1274.514       3309.3816     -1.1394877    
   5870000   298.11729     -613.14276      1263.4852      3316.2355      10.341369    
   5875000   292.55799     -557.10734      1250.3114      3309.3834      13.230906    
   5880000   303.28107     -560.85824      1259.8168      3411.0283      1.6378496    
   5885000   299.04372     -574.45026      1299.5141      3399.2414      9.8636217    
   5890000   302.40872     -597.14955      1272.6187      3379.7381      6.7253276    
   5895000   297.4272      -577.21769      1270.8668      3353.3711      7.7927014    
   5900000   301.67141     -582.27563      1246.9807      3362.3805     -0.57716816   
   5905000   298.6582      -620.0019       1293.9946      3344.7228     -1.5747416    
   5910000   293.73647     -617.6844       1266.4162      3275.4497     -8.9698344    
   5915000   305.86291     -602.30714      1230.9311      3363.7816     -7.8044995    
   5920000   297.94316     -606.84062      1247.8685      3305.3637     -1.8811047    
   5925000   299.24122     -619.59947      1288.1282      3344.4724      1.5259777    
   5930000   298.76321     -583.95652      1309.6285      3397.3412      1.3048196    
   5935000   303.0986      -591.35302      1242.7342      3361.8193     -3.7128487    
   5940000   306.76271     -595.13383      1348.7618      3496.832       20.905472    
   5945000   294.84386     -596.70498      1267.372       3307.2877      11.11752     
   5950000   307.9887      -611.69316      1249.6152      3392.0895      1.6804092    
   5955000   297.78287     -565.69611      1287.8382      3385.0446     -4.8384639    
   5960000   298.58289     -551.20282      1286.6316      3405.4855     -3.8304443    
   5965000   301.95084     -553.33024      1258.0633      3404.9073      9.3622392    
   5970000   297.96609     -558.35679      1294.6101      3400.7943      8.7681749    
   5975000   294.31227     -578.60575      1243.9578      3297.219       15.875676    
   5980000   297.29955     -564.69032      1283.5262      3377.4163      8.7448661    
   5985000   299.79938     -578.64883      1264.9112      3367.1974      10.573484    
   5990000   296.24887     -580.51013      1285.0229      3353.6975     -1.0933662    
   5995000   298.68073     -595.59233      1258.3465      3333.6857      12.940535    
   6000000   298.33583     -588.82193      1274.1026      3353.1279     -0.14417191   
   6005000   301.71692     -628.62188      1240.5334      3309.994      -0.21351662   
   6010000   297.08247     -598.04717      1282.9224      3341.5145      4.6203642    
   6015000   307.40624     -603.75147      1258.2813      3403.4886      12.778391    
   6020000   303.17316     -601.73634      1302.687       3412.0555     -0.109786     
   6025000   303.68605     -568.41834      1309.7104      3456.9834     -1.2080401    
   6030000   300.41206     -541.22583      1250.6582      3395.8463      6.8354793    
   6035000   298.00279     -575.22744      1270.4623      3360.1039      9.7912308    
   6040000   311.00324     -561.81544      1281.0698      3500.3791      20.954769    
   6045000   302.15045     -562.9877       1308.5907      3447.5623      3.7187506    
   6050000   297.75773     -547.8783       1275.1913      3389.9907      13.578219    
   6055000   305.50391     -568.3229       1257.1985      3420.823       12.302373    
   6060000   295.97685     -514.66492      1286.6573      3418.7447      7.4722937    
   6065000   302.49123     -551.96268      1277.1509      3430.195       0.7618957    
   6070000   297.38667     -526.47786      1286.2655      3419.1472      2.7074408    
   6075000   300.05155     -563.33536      1239.4982      3359.3529      3.5499793    
   6080000   304.08146     -591.04892      1306.9896      3435.1679     -0.8410872    
   6085000   308.88972     -566.45156      1297.1513      3492.9245      3.8448346    
   6090000   297.87152     -560.66481      1296.5798      3399.6102      11.552087    
   6095000   302.18847     -565.59801      1290.6502      3427.3515      5.9879397    
   6100000   298.91        -552.75626      1310.4674      3430.6929      1.4780391    
   6105000   293.09609     -539.48925      1224.6157      3306.1178      2.5782112    
   6110000   301.22877     -517.93402      1259.5675      3435.3507      7.3733125    
   6115000   310.40592     -548.20485      1269.5643      3497.1427      6.7975843    
   6120000   307.00285     -576.47895      1234.4694      3403.342       6.9124519    
   6125000   298.04297     -559.95554      1258.5771      3363.85        3.0230458    
   6130000   300.55807     -576.25216      1306.0181      3417.4855      7.516279     
   6135000   299.47102     -591.30731      1263.1577      3349.8491      8.2133407    
   6140000   300.28        -595.01872      1271.0514      3361.2656      4.7215533    
   6145000   298.94727     -552.26851      1290.2285      3411.275       4.9996857    
   6150000   291.66392     -547.30893      1233.3283      3294.2036      15.088063    
   6155000   302.30825     -543.88646      1278.6947      3438.1787      4.9817211    
   6160000   300.88534     -605.53794      1328.4197      3413.5279      4.2036257    
   6165000   295.57606     -603.3787       1278.7888      3318.5784      8.1227596    
   6170000   297.99411     -564.48007      1278.1556      3378.4671     -3.3099525    
   6175000   302.16691     -571.50623      1260.8451      3391.4453      0.57608272   
   6180000   304.56538     -592.70911      1317.3472      3448.1927      7.43878      
   6185000   296.65386     -604.50401      1258.9295      3307.2319     -4.3718477    
   6190000   299.19721     -576.62811      1300.1607      3399.0827      6.3206967    
   6195000   295.15086     -603.41739      1263.1837      3299.1323     -4.851195     
   6200000   300.73187     -567.2539       1231.9599      3353.9798      20.97972     
   6205000   295.9691      -570.41337      1317.3459      3393.6156      4.6788677    
   6210000   301.07122     -560.67292      1368.2594      3499.8948     -0.82277378   
   6215000   300.65585     -564.62221      1284.754       3408.7258      7.1397797    
   6220000   295.09949     -571.79993      1263.4168      3330.5234      3.2459908    
   6225000   296.94456     -587.5533       1270.6727      3338.5254      7.2437122    
   6230000   296.99254     -543.80322      1311.7213      3423.7531      13.769166    
   6235000   294.51516     -531.76066      1276.7111      3378.6317      2.329346     
   6240000   297.72187     -563.15         1216.4514      3315.6584      2.1262717    
   6245000   302.65622     -545.64201      1277.1856      3438.0257      10.347366    
   6250000   301.97164     -552.51406      1255.7421      3403.5883      7.036262     
   6255000   303.83324     -589.83261      1327.313       3454.488       9.1047617    
   6260000   302.5854      -581.87231      1293.2711      3417.2476      3.8222176    
   6265000   292.33672     -533.39642      1299.2339      3380.0382      8.2043903    
   6270000   305.23946     -537.42591      1264.8726      3457.0293      7.776398     
   6275000   294.7112      -574.82675      1275.6522      3336.2597      11.378171    
   6280000   305.52087     -567.82859      1253.648       3417.9184      10.143674    
   6285000   305.96709     -604.00325      1283.442       3415.5281      3.7728761    
   6290000   297.28457     -595.52906      1272.0424      3334.9599      11.791277    
   6295000   301.63023     -592.68878      1317.5885      3422.207       5.0796674    
   6300000   292.90921     -558.23137      1260.2625      3321.3513      17.255172    
   6305000   298.84656     -528.93478      1272.2127      3415.6924      2.4033473    
   6310000   297.4132      -555.15122      1264.6944      3369.1399      4.4105554    
   6315000   294.13843     -525.15115      1299.5941      3404.7553     -1.1567031    
   6320000   303.41015     -554.96448      1253.1542      3411.4138      2.7013018    
   6325000   293.39006     -539.69474      1240.4033      3324.3287      14.499798    
   6330000   307.46333     -547.16295      1290.5496      3492.856       15.85608     
   6335000   302.20917     -583.00787      1302.2479      3421.7244      11.012818    
   6340000   306.36851     -526.22103      1319.1774      3532.6353      11.330009    
   6345000   294.24385     -560.3185       1253.6294      3324.566      -0.81607503   
   6350000   295.57254     -551.48048      1309.4078      3401.0641      14.424516    
   6355000   308.15163     -538.52794      1265.2638      3482.3602     -7.2237407    
   6360000   298.01454     -514.18508      1275.5542      3426.3434      0.37415429   
   6365000   303.20376     -505.85517      1259.7327      3465.256       7.6622344    
   6370000   297.86826     -558.58553      1277.6839      3382.7646      12.707489    
   6375000   307.30554     -550.29805      1284.0552      3481.8154      11.648627    
   6380000   301.63005     -542.18236      1265.4369      3420.5602      6.9740734    
   6385000   309.40478     -579.27992      1248.2806      3435.8313      10.850542    
   6390000   294.1763      -558.03256      1281.1267      3353.7451      9.8556046    
   6395000   291.52147     -557.19438      1303.0812      3352.7972      5.5520127    
   6400000   303.12498     -560.22566      1269.2522      3419.7005      6.1637595    
   6405000   300.54679     -581.76621      1289.3676      3395.22       -5.1583303    
   6410000   303.44339     -539.63572      1269.6884      3443.5739      11.841316    
   6415000   299.23871     -541.73817      1286.0536      3420.2367      1.2616782    
   6420000   295.52071     -558.89721      1292.6129      3376.389       7.2090396    
   6425000   291.80229     -558.89187      1287.1877      3337.7174      16.26098     
   6430000   296.00234     -567.55338      1283.8295      3363.2563     -2.3003288    
   6435000   300.23995     -565.35111      1275.6222      3395.1458      10.058176    
   6440000   298.72016     -533.92373      1247.1831      3384.5435     -1.7805373    
   6445000   297.0599      -536.98359      1203.1474      3322.6013      3.2877538    
   6450000   301.52112     -537.33988      1312.0541      3471.0458      19.302771    
   6455000   298.27855     -536.42414      1269.0922      3400.0031     -0.38630241   
   6460000   296.61427     -584.90468      1218.555       3286.1026      1.1965962    
   6465000   297.22862     -576.83397      1322.546       3403.6582      10.752399    
   6470000   307.6446      -612.81539      1293.3074      3431.5824      14.445282    
   6475000   301.63243     -622.11793      1206.5307      3281.7398      3.4415935    
   6480000   301.44751     -602.1097       1248.3484      3341.912       10.253231    
   6485000   294.14034     -644.33969      1295.7882      3281.778       4.7642334    
   6490000   307.66319     -597.0215       1277.0661      3431.3012      3.5955205    
   6495000   288.71471     -597.55519      1328.0151      3312.271      -0.45982785   
   6500000   310.67822     -581.20031      1266.629       3463.647      -0.9200189    
   6505000   307.51239     -590.67606      1264.4422      3423.6742      4.3918646    
   6510000   298.33901     -610.28727      1271.3066      3328.895       4.7340977    
   6515000   301.66096     -606.04109      1254.0643      3345.6053      18.275135    
   6520000   298.38231     -602.39353      1262.2907      3328.1601      12.171658    
   6525000   299.5315      -601.33598      1238.2148      3315.4184      6.0544588    
   6530000   294.87185     -610.75202      1299.745       3325.8638      20.962903    
   6535000   302.92327     -647.40827      1267.074       3328.5359      14.862152    
   6540000   302.1315      -615.24621      1252.7927      3339.3363      18.293987    
   6545000   303.73487     -613.73532      1289.9727      3392.3652      15.116088    
   6550000   300.24674     -629.39205      1246.3768      3301.9202      8.9726226    
   6555000   290.73144     -617.09634      1307.6418      3290.391       15.129439    
   6560000   298.11443     -575.41973      1288.8092      3379.257       4.126332     
   6565000   302.64761     -574.74783      1312.6906      3444.3479     -1.8998374    
   6570000   299.98996     -554.48673      1303.4441      3431.5967     -9.3608939    
   6575000   303.53667     -549.84974      1262.7516      3427.2574      15.745218    
   6580000   307.94345     -587.68845      1301.5384      3467.6127      13.888637    
   6585000   297.23536     -545.88432      1294.0964      3406.2185      4.6786148    
   6590000   297.52156     -567.48233      1266.9941      3360.0775      12.022568    
   6595000   288.29253     -565.82386      1272.6392      3284.8511      1.6506265    
   6600000   296.71615     -593.48469      1297.499       3357.3777     -0.94654868   
   6605000   302.54568     -554.19079      1307.8022      3459.105      -6.1440953    
   6610000   300.34217     -576.01319      1233.9165      3343.6922      16.421858    
   6615000   296.50668     -596.64936      1261.3729      3316.2139      3.4818977    
   6620000   304.75783     -596.0813       1263.8751      3393.0695     -4.714673     
   6625000   303.26831     -609.4079       1283.1754      3385.7231      7.3515281    
   6630000   302.25947     -604.45312      1249.8672      3348.3483     -1.3889801    
   6635000   297.01715     -599.66362      1287.7756      3344.1671      9.750802     
   6640000   302.75224     -612.72006      1290.4612      3385.0819      10.171553    
   6645000   301.68542     -625.63281      1310.5655      3382.7335      0.63552287   
   6650000   308.22541     -602.92792      1287.2443      3440.6006      6.71441      
   6655000   298.40646     -591.46599      1233.9745      3310.9874      6.6438198    
   6660000   303.61029     -574.89577      1270.3371      3410.4551      0.00028235441
   6665000   300.58668     -565.01009      1290.3002      3413.2655      0.56608569   
   6670000   302.80671     -593.83438      1293.9882      3407.9817      9.0189627    
   6675000   301.60555     -579.21775      1250.6281      3368.497       4.3338586    
   6680000   303.28986     -567.14458      1258.9974      3404.0012      3.4160124    
   6685000   299.28035     -544.40038      1284.5476      3416.4408      5.9659093    
   6690000   296.8772      -533.24857      1246.8312      3368.3863      17.775977    
   6695000   298.19931     -532.3476       1280.2517      3414.5306      5.484194     
   6700000   300.50262     -586.1432       1300.3227      3401.4032      0.66256692   
   6705000   303.20658     -586.1307       1298.1102      3423.3831      7.5497081    
   6710000   303.92899     -551.28337      1315.5763      3482.1567      2.584735     
   6715000   294.5447      -567.68697      1260.2028      3326.4612      7.1975266    
   6720000   307.57337     -561.52608      1287.4357      3476.363       8.4942482    
   6725000   302.16342     -597.87389      1226.7756      3330.9769      14.792376    
   6730000   296.758       -593.55987      1245.083       3305.2609      7.9923465    
   6735000   304.3625      -571.63319      1308.524       3458.6311      16.795318    
   6740000   302.11716     -560.58557      1232.4168      3373.4928      5.3346161    
   6745000   299.90704     -590.03031      1295.2156      3387.0831      13.737394    
   6750000   305.11767     -532.53183      1291.0029      3486.9645      12.49376     
   6755000   306.10448     -542.34364      1282.1229      3477.0971      3.9886014    
   6760000   293.72736     -558.37461      1277.5566      3345.8184      1.6816258    
   6765000   307.6967      -570.96571      1251.307       3431.8975      1.1652526    
   6770000   310.01095     -563.01879      1227.6264      3436.8589      13.264762    
   6775000   298.56032     -573.42698      1317.1633      3413.5912      2.7485695    
   6780000   301.61729     -562.28596      1255.5218      3390.4274     -1.400411     
   6785000   306.79096     -532.81168      1282.6551      3493.3001     -3.156192     
   6790000   291.90754     -540.43546      1306.7482      3376.6756      2.9152989    
   6795000   309.49685     -584.76986      1267.0844      3449.9685      15.954092    
   6800000   307.73127     -537.24219      1271.7299      3486.3531      5.8820602    
   6805000   296.82756     -563.05969      1224.6014      3315.9014      10.481468    
   6810000   299.28544     -583.63535      1308.6144      3401.3181      6.2181758    
   6815000   305.42537     -553.86773      1309.6012      3486.9785      6.7227709    
   6820000   299.79853     -534.42628      1281.5015      3428.0026      10.80742     
   6825000   306.53114     -547.24453      1286.6233      3480.5121     -4.3452925    
   6830000   300.42979     -537.486        1285.8044      3434.8908      5.0015135    
   6835000   297.20743     -578.88874      1286.0161      3364.8841      5.6043908    
   6840000   304.09477     -534.06134      1255.9916      3441.2765      4.3725406    
   6845000   301.53271     -544.81466      1248.3785      3399.9991     -1.4892189    
   6850000   305.39417     -512.92083      1290.6103      3508.6555      16.765629    
   6855000   303.94536     -546.04688      1252.5107      3424.474       12.074531    
   6860000   302.62452     -554.9844       1306.0841      3457.2984      12.213221    
   6865000   294.97396     -577.31276      1258.2616      3318.733       1.3005118    
   6870000   302.22577     -547.22875      1276.8992      3432.3033      8.0014772    
   6875000   298.26184     -537.70162      1301.3967      3430.8808     -2.8217209    
   6880000   294.94567     -528.60597      1305.3477      3414.2727     -1.497238     
   6885000   303.49627     -520.69414      1313.5296      3506.8297      1.9615905    
   6890000   298.00672     -537.99273      1265.3004      3392.212       6.3457604    
   6895000   293.89827     -552.72255      1261.9026      3337.3449      6.6696325    
   6900000   304.09448     -557.89945      1263.3209      3424.7651      15.464182    
   6905000   299.9732      -553.92215      1285.8474      3414.4146      6.3996344    
   6910000   302.89013     -598.50136      1282.7608      3392.8333      1.4798611    
   6915000   300.68786     -586.23415      1273.0431      3375.6892      7.862611     
   6920000   294.49819     -582.94046      1250.3374      3300.9264      3.4832364    
   6925000   293.10434     -568.05668      1287.3598      3340.3682      2.7562883    
   6930000   298.86634     -577.22734      1287.0144      3382.3784      12.129807    
   6935000   296.79163     -597.99121      1248.9252      3304.9724      3.7842982    
   6940000   293.93875     -605.69442      1318.1417      3340.974       7.625754     
   6945000   297.80541     -597.13154      1265.378       3331.3506      15.906059    
   6950000   300.38498     -579.17234      1245.3659      3352.3653      11.197861    
   6955000   296.9614      -562.75921      1274.497       3367.2943      6.5085057    
   6960000   295.6047      -555.18785      1288.1598      3376.3964      1.5002858    
   6965000   302.05643     -557.91176      1283.6308      3426.8376      15.665832    
   6970000   296.04759     -579.92914      1233.8069      3301.2626      2.9790322    
   6975000   302.35721     -577.64939      1292.9264      3419.0853      3.5247308    
   6980000   299.79931     -614.28579      1261.4318      3328.0805      5.7256423    
   6985000   297.82381     -615.00017      1279.7434      3328.0119      7.8469766    
   6990000   295.29199     -585.01809      1299.9293      3355.5392      8.4681778    
   6995000   305.49389     -600.13293      1285.2991      3417.024       14.55535     
   7000000   307.50827     -597.71585      1258.521       3410.6763      8.7118586    
   7005000   297.21177     -580.61471      1273.8956      3351.0763      0.8392948    
   7010000   299.11637     -593.31674      1249.1467      3330.6571      10.804511    
   7015000   302.2731      -568.23408      1286.6804      3421.5023      1.1665033    
   7020000   299.51378     -539.71942      1289.7516      3428.4133      1.2783174    
   7025000   300.08515     -570.00379      1253.4267      3366.9134      0.12537864   
   7030000   294.73386     -562.55249      1317.8834      3390.9679      4.3150472    
   7035000   309.62517     -559.2393       1325.6175      3535.1796      11.029704    
   7040000   304.42669     -576.85613      1320.1838      3465.6421     -2.3415235    
   7045000   297.94384     -554.24329      1325.6012      3435.6999      18.727682    
   7050000   306.54467     -603.17354      1296.6885      3434.7693      0.75281702   
   7055000   301.80938     -623.57858      1257.2461      3332.5768      8.539656     
   7060000   304.30173     -590.08251      1220.697       3351.8115      14.945667    
   7065000   299.52406     -578.0705       1251.2374      3351.64        11.222078    
   7070000   300.94505     -571.62527      1296.7405      3416.2953     -4.8108008    
   7075000   303.56106     -544.41944      1310.5916      3480.7458      1.1404976    
   7080000   292.96554     -548.82305      1279.1147      3350.1155      5.1640613    
   7085000   301.50973     -549.58636      1313.0302      3459.6736      11.731991    
   7090000   296.2302      -557.81452      1312.1028      3403.3061      10.60439     
   7095000   301.70096     -549.59063      1255.6005      3403.9497      16.270643    
   7100000   299.20974     -545.0787       1294.6968      3425.2803      5.981679     
   7105000   298.60921     -519.64293      1273.6035      3424.2525      2.1782009    
   7110000   304.02978     -494.64985      1277.026       3501.1412      9.0969872    
   7115000   300.99257     -541.82363      1273.4458      3423.2273      16.812473    
   7120000   296.82713     -551.6264       1262.1587      3364.8881      3.2453391    
   7125000   306.10553     -560.18115      1309.2273      3486.3734      0.77037499   
   7130000   309.39323     -591.31231      1292.2271      3467.6422      15.931236    
   7135000   305.47531     -611.51368      1251.9791      3372.1571      4.4445816    
   7140000   300.32317     -613.15869      1261.4097      3333.8699      12.90281     
   7145000   293.69445     -627.57578      1241.4195      3240.1858     -11.878692    
   7150000   305.5352      -587.35891      1291.8011      3436.6693      1.5852776    
   7155000   300.93924     -575.77412      1262.5934      3377.9474      6.1682958    
   7160000   298.37514     -606.34456      1233.5626      3295.4168      10.74582     
   7165000   301.61924     -596.11554      1299.8588      3400.9523     -2.8428777    
   7170000   307.09979     -596.30837      1248.5079      3398.418       13.589777    
   7175000   294.3049      -598.19235      1266.4615      3300.0702      7.1129875    
   7180000   297.3412      -528.87069      1261.6056      3391.6878      2.9213247    
   7185000   294.409       -565.01134      1229.6128      3297.3334      1.7605287    
   7190000   295.47043     -580.07829      1246.9732      3309.1186      6.2897911    
   7195000   300.34537     -611.30818      1295.3898      3369.8992      11.848068    
   7200000   297.36747     -621.51648      1325.2871      3362.9585      9.6609137    
   7205000   304.4375      -617.4391       1260.7242      3365.6962      9.6861942    
   7210000   290.73794     -604.98622      1217.6745      3212.5919     -2.9442486    
   7215000   302.10603     -580.66988      1329.5784      3450.4706      0.46644595   
   7220000   303.15191     -569.99706      1218.118       3359.0357      11.877624    
   7225000   297.08376     -537.42626      1248.8155      3368.04        5.9805196    
   7230000   297.40636     -558.50693      1278.0256      3379.0543      5.2698586    
   7235000   300.8182      -561.13489      1276.3351      3405.2459      3.7451091    
   7240000   299.21112     -567.37244      1305.7166      3414.0187      2.6504587    
   7245000   300.97837     -564.78681      1247.7912      3374.4824      7.2432744    
   7250000   302.3234      -563.65305      1261.809       3401.6618      1.7508027    
   7255000   301.04895     -534.70352      1259.2151      3416.6208     -3.6415303    
   7260000   306.24886     -563.66357      1303.911       3478.8565     -1.3924174    
   7265000   307.3248      -539.30176      1263.2314      3472.1602      20.804861    
   7270000   299.85345     -554.40636      1262.2547      3389.2669      0.40095917   
   7275000   302.73908     -514.47836      1285.811       3478.5556      2.9340334    
   7280000   293.66438     -553.48419      1298.3565      3370.9455      13.251214    
   7285000   301.44513     -529.3956       1228.6125      3394.8689      1.8008745    
   7290000   304.58671     -583.116        1323.124       3463.7534     -0.64874235   
   7295000   297.60087     -557.16712      1242.418       3346.5259      8.3805519    
   7300000   299.52562     -563.30333      1284.6554      3399.839       7.645516     
   7305000   301.07119     -549.3456       1247.3672      3390.3297      11.146094    
   7310000   297.6112      -530.68886      1244.0681      3374.7466      11.915139    
   7315000   298.27493     -544.9923       1266.4571      3388.7675      3.0023556    
   7320000   313.32756     -518.71315      1246.8037      3530.0003      0.93373094   
   7325000   294.50198     -518.27076      1239.7904      3355.083       13.335207    
   7330000   309.96815     -564.33047      1246.8241      3454.3622      3.7023331    
   7335000   300.46634     -584.41455      1258.4584      3360.9432      6.7878288    
   7340000   300.89909     -587.71258      1297.0428      3400.0993      4.4173468    
   7345000   306.02905     -574.0827       1200.6705      3363.2312      4.998967     
   7350000   302.08906     -538.84665      1281.686       3444.2496      16.296585    
   7355000   294.33718     -562.18772      1299.9945      3369.8965      3.9360353    
   7360000   304.00592     -561.59103      1280.1639      3437.1246      4.2084074    
   7365000   300.78353     -564.03352      1275.2276      3400.9298      21.528696    
   7370000   301.75792     -527.88409      1253.6152      3424.1803      15.808105    
   7375000   301.59102     -576.78878      1220.9901      3341.158       9.108434     
   7380000   299.25826     -565.60733      1294.9881      3405.4768      8.1499289    
   7385000   297.43047     -529.79891      1289.6358      3419.5881      11.790509    
   7390000   303.40857     -558.66218      1287.7472      3442.2949      1.625854     
   7395000   298.10572     -576.66419      1295.1195      3384.2449     -8.0467383    
   7400000   301.66036     -575.09848      1254.7117      3377.1899      7.8476911    
   7405000   295.07158     -589.01024      1257.8694      3307.5161      5.8617499    
   7410000   301.86109     -619.38799      1305.8236      3385.8073      6.4389108    
   7415000   303.19267     -591.98421      1266.3569      3385.652       7.4060945    
   7420000   303.23783     -587.71087      1294.8332      3418.8054     -0.31457819   
   7425000   301.70998     -599.11183      1287.6723      3386.5809      3.7602877    
   7430000   293.70835     -617.49199      1303.1482      3312.1226      8.7587096    
   7435000   303.0116      -577.17713      1308.5041      3440.9871      8.364956     
   7440000   299.02367     -556.84824      1272.58        3389.73        3.8889071    
   7445000   307.32608     -571.86242      1299.8867      3476.2663      8.8373657    
   7450000   298.62042     -568.51765      1297.4997      3399.3743      4.4508661    
   7455000   300.93745     -581.98564      1251.1968      3360.3233      2.3628452    
   7460000   299.92648     -554.19744      1270.0685      3397.9427      10.011369    
   7465000   303.64383     -569.54758      1244.8791      3390.6453      2.7435149    
   7470000   301.41112     -552.84995      1291.504       3434.002       2.0375232    
   7475000   308.75422     -567.43078      1280.9571      3474.5394      9.7942861    
   7480000   306.10379     -567.35098      1265.3022      3435.263       12.533721    
   7485000   303.83        -628.96541      1304.5699      3392.5831      13.477988    
   7490000   303.90429     -595.28476      1284.4653      3406.8234      7.0205087    
   7495000   294.92855     -618.9372       1324.6421      3343.0829     -5.1209096    
   7500000   301.83535     -605.91803      1313.0646      3406.288       7.2912722    
   7505000   295.45059     -618.41583      1322.9107      3346.5412     -9.9899248    
   7510000   299.7734      -574.11884      1279.6674      3386.2512      3.2854925    
   7515000   305.40658     -563.22052      1295.5132      3463.3697     -1.1033541    
   7520000   306.94622     -566.8017       1299.9764      3478.0199      13.56462     
   7525000   298.32931     -539.70261      1245.2376      3373.324       12.631335    
   7530000   302.9883      -565.48676      1281.0933      3425.0583      12.596869    
   7535000   299.05563     -576.93683      1201.6549      3299.0022      11.888438    
   7540000   298.54629     -612.00374      1245.5647      3303.2903      11.624963    
   7545000   296.24275     -608.75544      1301.7351      3342.1098      6.6018609    
   7550000   299.72154     -594.92226      1298.7607      3384.0774      13.968975    
   7555000   310.233       -631.98683      1268.1043      3410.3544     -0.28712705   
   7560000   301.44447     -603.6419       1275.1043      3367.1085      15.27359     
   7565000   297.06957     -616.91723      1214.4735      3254.0801      8.1839686    
   7570000   297.57427     -593.8665       1221.9146      3289.0852      2.6297966    
   7575000   292.52708     -564.09536      1312.2873      3364.095       1.0292279    
   7580000   307.55731     -572.79989      1241.6589      3419.1688      8.0900792    
   7585000   302.80864     -536.84212      1287.9245      3458.9275     -0.40496787   
   7590000   295.44356     -598.89828      1327.8768      3370.9619      12.835541    
   7595000   302.21668     -596.03094      1276.7219      3383.2425      1.1637387    
   7600000   302.70614     -598.4083       1250.6182      3359.1384      9.6937211    
   7605000   300.89113     -544.49079      1302.0794      3448.2865      4.7248517    
   7610000   297.23126     -567.48231      1270.4221      3360.9095      17.754974    
   7615000   302.31786     -535.03219      1265.7403      3434.1645      10.173769    
   7620000   304.11194     -562.97729      1257.9596      3414.4821      4.0271064    
   7625000   300.78012     -521.24451      1273.2226      3441.6834      5.8186426    
   7630000   303.5324      -541.0388       1293.6309      3466.9094      21.631276    
   7635000   294.51281     -541.52186      1268.8224      3360.9608     -11.694701    
   7640000   302.21487     -587.47794      1249.9845      3365.0419      12.028213    
   7645000   294.44448     -589.47436      1240.5474      3284.1223      3.3702445    
   7650000   298.0825      -602.91895      1261.6771      3324.3401      15.819627    
   7655000   302.17944     -617.75353      1279.8799      3364.345      -1.434027     
   7660000   293.74739     -638.56829      1254.7421      3242.9892      0.58908317   
   7665000   300.37843     -611.44889      1279.8417      3354.506       10.068904    
   7670000   306.21843     -613.149        1277.6828      3402.8707      8.4590214    
   7675000   303.29084     -641.11035      1274.8425      3345.8893      10.803733    
   7680000   304.51344     -597.10553      1277.9752      3403.9598      18.639396    
   7685000   294.8284      -562.51693      1294.8554      3368.8209      10.83607     
   7690000   306.42843     -607.8749       1295.9781      3428.3181     -1.5705553    
   7695000   303.40584     -642.90758      1292.401       3362.679       7.8063785    
   7700000   308.96021     -626.99767      1300.2239      3436.0813      4.7473791    
   7705000   294.88936     -582.0489       1242.3872      3297.3658      6.1839433    
   7710000   299.85116     -549.22683      1276.0621      3408.2333      8.8214424    
   7715000   299.47251     -629.59958      1284.4121      3332.8246      8.3867715    
   7720000   302.97005     -610.21047      1245.0115      3344.0895      7.9252908    
   7725000   299.25957     -570.29776      1282.1089      3387.919       3.5242452    
   7730000   295.25611     -560.20609      1304.0241      3384.1252      15.442965    
   7735000   297.25353     -555.35269      1305.8077      3408.6239      11.27233     
   7740000   293.82183     -541.41773      1271.4348      3357.4983      12.740805    
   7745000   307.11979     -542.03659      1278.2213      3482.582       8.9215217    
   7750000   302.51773     -542.76761      1258.9798      3421.4558      12.036561    
   7755000   302.44295     -549.97502      1248.5797      3403.1796     -11.022039    
   7760000   292.09471     -567.09485      1282.8024      3327.7441      10.896117    
   7765000   303.18395     -559.81584      1286.0578      3437.4433      15.44775     
   7770000   297.20385     -572.65911      1306.3621      3391.4277      19.825016    
   7775000   300.32303     -555.50077      1312.2115      3442.3285      3.5446487    
   7780000   301.0409      -527.71027      1323.9668      3488.2937      9.2507847    
   7785000   300.32219     -531.60482      1283.4451      3437.4505      5.2627353    
   7790000   301.71526     -565.53414      1263.4997      3396.0332      6.3499642    
   7795000   299.75501     -586.41845      1291.8139      3385.9336     -2.5115452    
   7800000   298.65137     -578.1247       1291.1257      3383.67        9.4858538    
   7805000   299.1284      -564.30336      1295.8229      3406.4544     -2.4286166    
   7810000   302.77231     -583.67026      1312.5768      3436.4268      6.7053913    
   7815000   304.90314     -573.52102      1263.7766      3416.8306      2.9800365    
   7820000   294.04254     -569.19444      1249.7739      3310.0344      0.25721994   
   7825000   302.30003     -546.28784      1280.6535      3437.6626     -2.952739     
   7830000   304.33433     -573.08398      1227.9195      3376.3241      2.3820474    
   7835000   302.46314     -606.18388      1306.9623      3405.5339      5.8008067    
   7840000   303.26255     -602.23732      1298.463       3408.1299      11.621511    
   7845000   300.95262     -567.46157      1227.1469      3350.9331      5.765089     
   7850000   302.40406     -540.31249      1293.136       3457.0508     -0.29878356   
   7855000   294.91787     -574.59852      1247.8587      3310.5426      7.3815895    
   7860000   295.91803     -605.62811      1252.0668      3292.6651     -1.2762079    
   7865000   304.3743      -579.00905      1297.0104      3439.8472      15.65116     
   7870000   304.94816     -593.21434      1271.6742      3405.4375      7.4243673    
   7875000   307.25742     -584.77946      1285.1717      3448.0203      10.5003      
   7880000   304.82337     -596.80308      1307.7875      3436.8461      5.3158306    
   7885000   295.735       -629.3241       1222.809       3238.0744     -1.0558866    
   7890000   302.55827     -628.11521      1259.1509      3336.6418      10.597723    
   7895000   293.19965     -618.13389      1295.6783      3299.4618      16.920616    
   7900000   298.25322     -588.06248      1324.1532      3403.1993     -0.78615116   
   7905000   305.75531     -624.95852      1310.1507      3419.3877      9.422286     
   7910000   299.63499     -593.86535      1274.9776      3360.5772      18.274353    
   7915000   289.02909     -613.78218      1302.745       3273.5853      6.0599053    
   7920000   299.59478     -598.95301      1266.2917      3346.4441      12.009743    
   7925000   305.60077     -593.59586      1311.5615      3450.7793      9.5871114    
   7930000   297.71109     -570.18047      1290.2248      3382.3049      8.0675221    
   7935000   301.24264     -601.37361      1262.8472      3355.3149      11.554907    
   7940000   296.7425      -574.46824      1340.7572      3419.8881      5.5437814    
   7945000   302.74701     -556.42207      1263.1082      3413.9801      7.2216602    
   7950000   292.65624     -601.39216      1266.5679      3282.2337      11.838567    
   7955000   303.89548     -607.34468      1290.2581      3400.4775      0.26684583   
   7960000   300.4983      -606.73643      1309.4484      3389.897       5.2455622    
   7965000   303.57419     -570.19093      1259.2462      3403.7463      14.147101    
   7970000   302.09698     -616.02016      1252.6081      3338.0691      5.256361     
   7975000   301.41929     -565.55878      1282.487       3412.3492      6.6389151    
   7980000   295.7561      -533.93681      1304.6108      3415.4523      7.6493988    
   7985000   301.62525     -540.91154      1297.2389      3453.5901     -0.47551999   
   7990000   292.00337     -540.1498       1273.4582      3344.5281      6.4708939    
   7995000   301.34402     -537.46069      1286.1643      3443.4514      13.551197    
   8000000   298.06873     -549.12115      1279.261       3395.5986      11.068836    
   8005000   302.79438     -534.18579      1285.4988      3459.0305      2.3414754    
   8010000   301.53864     -537.34143      1290.3051      3449.4519      7.6124897    
   8015000   307.62352     -541.94124      1261.177       3470.1376      4.3192746    
   8020000   294.21795     -558.12808      1281.8276      3354.7229      5.5279926    
   8025000   301.62128     -608.40673      1221.2562      3310.0767      11.994896    
   8030000   304.39446     -568.0629       1230.2178      3384.1811      17.851628    
   8035000   300.56336     -524.97486      1322.4888      3485.2807     -7.7790808    
   8040000   300.79637     -547.6365       1264.2526      3406.4666      12.218113    
   8045000   293.28568     -548.73843      1310.9836      3384.9319      5.5794327    
   8050000   302.07547     -567.83608      1258.0987      3391.5514      11.207138    
   8055000   303.35366     -570.09375      1298.1802      3440.8054      4.0649127    
   8060000   301.96665     -594.69212      1261.1632      3366.7868     -3.6436853    
   8065000   297.3953      -578.34324      1293.5262      3374.6197      10.499518    
   8070000   299.02263     -576.1274       1317.6245      3415.4861      10.875479    
   8075000   294.86431     -591.81666      1300.5282      3345.515       0.16008167   
   8080000   304.27606     -581.89099      1230.4591      3369.5355     -0.28940919   
   8085000   295.97362     -578.99718      1248.647       3316.3732      17.817576    
   8090000   302.63106     -577.20136      1247.0038      3376.0596     -5.6553641    
   8095000   300.2281      -619.94854      1260.094       3324.9143     -6.088584     
   8100000   301.23607     -595.92084      1270.958       3368.8197      5.7237573    
   8105000   297.98253     -601.81137      1267.0453      3329.9218      6.6484708    
   8110000   308.35627     -587.02492      1300.0068      3470.4363      13.137501    
   8115000   294.39318     -572.13021      1261.3521      3321.8124      7.0259237    
   8120000   293.86988     -587.76938      1261.652       3301.7935      18.428992    
   8125000   304.36383     -584.00142      1271.9231      3409.674       12.994473    
   8130000   299.39508     -587.36122      1277.8462      3367.8045      2.0952291    
   8135000   303.4986      -573.20044      1266.2416      3407.0562      9.3889471    
   8140000   306.40722     -568.72719      1310.3029      3481.6009      12.245973    
   8145000   297.06914     -553.44207      1282.8449      3385.9228      2.9721721    
   8150000   293.41336     -539.03947      1315.3379      3400.1269     -2.6930343    
   8155000   291.70912     -572.20518      1287.0297      3323.4129     -0.38263641   
   8160000   298.58138     -587.503        1309.9728      3392.513       2.1383699    
   8165000   301.55432     -587.40508      1240.3891      3349.6125      6.598562     
   8170000   296.70397     -569.85976      1290.7906      3374.1853      2.2536675    
   8175000   299.35841     -564.26032      1286.5816      3399.3129      9.4819803    
   8180000   303.3302      -581.20773      1279.1138      3410.4153      14.400287    
   8185000   301.81013     -603.06775      1289.3312      3385.1794      3.6220478    
   8190000   292.47972     -577.71808      1272.0567      3309.8181      5.6755162    
   8195000   303.6801      -615.70231      1210.6193      3310.5551      2.5194528    
   8200000   296.61688     -612.71477      1325.6602      3365.4212      6.1458183    
   8205000   297.53999     -575.12813      1274.6548      3360.2572      14.846708    
   8210000   303.93057     -590.84695      1248.6329      3375.6638      2.2701632    
   8215000   297.54726     -587.42869      1295.0458      3368.4127      12.139868    
   8220000   301.41914     -590.65354      1293.8236      3398.5896      11.721558    
   8225000   299.84021     -575.51084      1294.5744      3400.3638      7.4237019    
   8230000   295.82068     -537.85289      1307.2379      3414.7408      17.273741    
   8235000   285.55262     -510.75367      1237.9624      3280.7431      14.531816    
   8240000   294.35686     -532.49731      1291.2925      3391.0608     -1.2092708    
   8245000   298.55766     -522.43142      1271.4715      3418.871       12.195641    
   8250000   298.89174     -569.16758      1270.894       3374.5448      6.029627     
   8255000   299.04962     -551.9756       1279.9202      3402.1749      21.7195      
   8260000   308.22242     -568.49526      1268.5081      3456.2703      8.4457188    
   8265000   298.7969      -576.77943      1254.6739      3349.8649      7.4582857    
   8270000   301.48386     -576.92755      1253.1734      3372.2443      11.767295    
   8275000   299.26746     -598.33694      1256.6202      3334.4615      10.409122    
   8280000   300.13095     -604.5179       1286.3313      3365.7135      13.482723    
   8285000   297.02003     -580.17478      1299.7238      3375.6298      7.2078494    
   8290000   297.51534     -623.78705      1284.1731      3320.8962      12.727143    
   8295000   290.97944     -613.14594      1235.1212      3224.0385      2.0829644    
   8300000   298.51552     -576.65144      1248.6856      3341.4884      3.1382655    
   8305000   298.23006     -613.78835      1279.3846      3332.4977     -0.23728641   
   8310000   297.50718     -633.75185      1265.693       3292.3783      3.4674059    
   8315000   302.08314     -620.63363      1262.3409      3343.0647      1.082751     
   8320000   300.01283     -586.01402      1240.7806      3337.6103      1.6677381    
   8325000   290.23901     -570.75649      1276.5975      3301.2831      5.6746143    
   8330000   298.29983     -552.71272      1293.1088      3407.9214      2.4619509    
   8335000   301.79551     -582.31397      1259.3496      3375.8209     -1.710988     
   8340000   300.92817     -603.9235       1310.83        3397.9357      15.91548     
   8345000   304.13365     -586.13245      1263.3967      3396.9581      15.736008    
   8350000   295.59753     -605.57813      1294.7552      3332.5373     -9.109515     
   8355000   308.69539     -651.21547      1266.7699      3376.0413      11.727984    
   8360000   302.33753     -560.10308      1313.4273      3456.9564      0.23239537   
   8365000   297.96183     -568.23082      1284.7817      3381.0537      14.415059    
   8370000   299.97595     -573.73913      1263.7132      3372.4881      5.649857     
   8375000   296.30992     -593.25261      1304.0838      3360.5619     -3.0318292    
   8380000   301.7092      -591.62441      1273.2012      3379.5903     -4.1212823    
   8385000   294.64624     -597.49272      1320.3908      3357.7515      13.311483    
   8390000   301.93792     -631.07116      1292.4923      3361.4798      13.2154      
   8395000   301.22912     -587.72309      1293.847       3399.8443     -1.5886103    
   8400000   305.90575     -580.24324      1248.6147      3403.9123      12.615537    
   8405000   304.39376     -590.95815      1240.2949      3371.3567     -2.1073259    
   8410000   305.80626     -588.62143      1286.0172      3432.0469      7.3324661    
   8415000   307.41525     -573.91279      1232.3906      3407.5173      16.55906     
   8420000   297.09076     -618.50549      1269.1867      3307.3947      2.2851499    
   8425000   302.39868     -591.4753       1269.8673      3382.571       3.4476939    
   8430000   304.90628     -531.2513       1275.745       3471.0968      4.3591946    
   8435000   294.47467     -565.25159      1250.6286      3318.6962     -0.42268705   
   8440000   301.30671     -587.27381      1323.453       3430.5934      6.2080576    
   8445000   307.14027     -605.1561       1238.7763      3380.2006     -6.080225     
   8450000   296.733       -605.58084      1302.4031      3350.3364     -3.8461702    
   8455000   294.1892      -593.05041      1336.8665      3374.5825      0.73681096   
   8460000   300.52547     -609.80845      1261.4735      3339.093       0.70721143   
   8465000   298.93596     -604.22036      1274.1965      3343.1901     -7.9399486    
   8470000   306.2671      -532.52097      1270.7789      3477.03        12.804535    
   8475000   304.91558     -546.44642      1239.5119      3419.7518      11.500118    
   8480000   298.91735     -532.55066      1237.792       3378.2888      3.7527326    
   8485000   292.75926     -532.64145      1269.3092      3354.647       8.2920584    
   8490000   312.73937     -544.75131      1292.2497      3544.1483      9.8924869    
   8495000   298.96686     -516.35313      1256.0981      3413.2353      1.4750511    
   8500000   300.75592     -536.76352      1260.2977      3413.023       4.441433     
   8505000   295.98881     -561.53912      1334.7195      3420.0396      17.870471    
   8510000   295.94262     -545.34464      1315.2658      3416.3673      11.289246    
   8515000   307.80846     -510.14491      1245.1978      3487.6086      10.416404    
   8520000   299.73458     -548.1997       1233.467       3365.6229      3.093071     
   8525000   305.44339     -584.14195      1267.2947      3414.5589      2.1941484    
   8530000   296.17729     -554.83049      1277.711       3371.4252      7.088285     
   8535000   300.32607     -563.97408      1279.4984      3401.1692     -0.4712386    
   8540000   293.64757     -589.49581      1286.6817      3323.1087     -3.8455156    
   8545000   302.98231     -600.32959      1329.8525      3438.9211      8.6447728    
   8550000   292.11294     -560.83333      1262.8783      3314.2445     -1.0106646    
   8555000   300.19673     -521.05596      1232.8514      3396.2837      9.7757131    
   8560000   300.56729     -550.71139      1277.1702      3414.2608      1.9043081    
   8565000   296.72819     -541.5516       1266.0607      3377.9802      9.1155588    
   8570000   304.84382     -538.22117      1239.5209      3427.3443      7.9854011    
   8575000   302.74028     -535.38205      1278.4017      3450.2535      9.2904502    
   8580000   300.48373     -601.92841      1300.4886      3385.6149      10.123138    
   8585000   300.55211     -534.07535      1273.0436      3426.6345     -7.9054399    
   8590000   301.85464     -564.64948      1258.0015      3392.6661     -4.1784184    
   8595000   299.70911     -517.07122      1260.1538      3423.2104      10.867194    
   8600000   294.0142      -535.74847      1260.2264      3353.6794      4.0600861    
   8605000   297.13931     -578.11146      1281.9481      3360.9841      9.2552141    
   8610000   311.20931     -556.99227      1292.0032      3517.9784      3.0265735    
   8615000   302.23698     -550.86993      1265.3742      3417.2374      3.674976     
   8620000   297.24623     -529.09653      1293.9511      3422.9582      3.096069     
   8625000   307.00288     -549.23669      1244.9817      3441.0968      13.607066    
   8630000   297.36593     -572.25841      1269.6102      3356.5258      5.3866173    
   8635000   300.96598     -591.02436      1295.1591      3395.502       8.91683      
   8640000   302.27174     -588.03461      1264.4872      3379.4965      1.9510783    
   8645000   295.82845     -606.29447      1347.5395      3386.6703     -1.098399     
   8650000   292.99007     -595.77741      1330.5543      3354.8201     -0.42065662   
   8655000   297.01588     -612.38297      1285.8584      3329.5192      1.712953     
   8660000   307.16823     -570.43102      1247.1623      3423.5617      11.071904    
   8665000   307.02856     -546.75814      1290.2169      3489.0402      1.8400249    
   8670000   304.35929     -565.35312      1339.241       3495.5996      0.67771078   
   8675000   299.16387     -591.05398      1297.8277      3382.0257      2.3825232    
   8680000   301.25666     -562.665        1271.8122      3403.1139     -3.2262807    
   8685000   300.83707     -566.41163      1273.56        3397.3629     -2.5246775    
   8690000   301.47873     -624.28145      1297.2671      3368.9381     -0.58358199   
   8695000   294.8331      -576.97775      1297.8415      3357.3882      1.3395828    
   8700000   295.93299     -556.3123       1290.3942      3380.442       2.6060601    
   8705000   299.65493     -547.80318      1235.2029      3367.043       8.9976008    
   8710000   291.86446     -560.29023      1245.5073      3295.1947      2.4671307    
   8715000   301.05604     -538.24669      1243.2799      3397.2058      13.690049    
   8720000   299.11407     -570.25762      1251.2572      3355.8063      4.5497033    
   8725000   296.82359     -553.8142       1235.8322      3336.3422      7.140871     
   8730000   300.599       -544.30324      1270.1009      3413.8833      7.610243     
   8735000   301.52239     -553.84578      1294.1332      3436.6303      16.184537    
   8740000   304.24055     -579.57568      1266.7571      3407.8312      11.511234    
   8745000   295.7006      -541.93867      1282.0425      3384.3858      8.3960072    
   8750000   295.27013     -630.65273      1325.6548      3335.4345      3.5786467    
   8755000   307.10147     -584.85008      1221.616       3382.9993      13.290556    
   8760000   300.62852     -598.38206      1292.7236      3382.6912      19.602592    
   8765000   294.30501     -558.79656      1282.3108      3355.3162      1.5405793    
   8770000   304.71384     -579.4644       1311.0867      3456.5045      10.096108    
   8775000   291.47005     -537.9188       1281.7942      3350.3259      2.4598935    
   8780000   293.39353     -576.72725      1292.8997      3339.8237     -6.6335032    
   8785000   292.49571     -584.50837      1251.0784      3282.1925      3.5652018    
   8790000   299.99543     -578.69103      1287.8042      3391.8013      6.1978405    
   8795000   304.58965     -579.27741      1282.396       3426.8902      8.9658773    
   8800000   305.01082     -551.25332      1248.8925      3425.1772      6.5034588    
   8805000   299.77724     -523.49027      1302.4616      3459.7084      11.743276    
   8810000   304.61031     -564.30464      1323.2407      3482.8925      17.387109    
   8815000   290.86538     -577.72012      1271.3796      3294.7029     -0.03864883   
   8820000   292.77819     -592.31972      1278.6707      3304.4994     -0.12907457   
   8825000   292.95185     -590.5873       1246.0219      3275.1361      9.0278765    
   8830000   300.41818     -576.10515      1253.0749      3363.4383      3.1075447    
   8835000   305.06885     -601.95224      1297.6243      3423.7289      5.5058629    
   8840000   296.1734      -542.82437      1261.7204      3367.406       9.3634914    
   8845000   305.2541      -535.03514      1279.779       3474.4573      8.9592699    
   8850000   302.44015     -542.57538      1323.5977      3485.5723      10.225801    
   8855000   307.55131     -595.71141      1337.5486      3492.0933      5.8002547    
   8860000   296.85764     -594.39728      1250.2452      3310.4767      2.3793476    
   8865000   298.07746     -568.92807      1297.5057      3394.1145     -3.1099306    
   8870000   301.82225     -557.90773      1329.1196      3470.2362      12.828145    
   8875000   297.23836     -568.65827      1253.7749      3343.1499      11.484506    
   8880000   306.20172     -538.91261      1281.3074      3480.5822      10.555067    
   8885000   305.14796     -588.0261       1316.8506      3457.5888      15.51356     
   8890000   299.03605     -569.04236      1342.857       3447.9236      2.7067783    
   8895000   302.18503     -565.48943      1304.0796      3440.8587      14.874873    
   8900000   301.12962     -580.68141      1308.8219      3420.9711     -7.8900219    
   8905000   289.71754     -562.22168      1270.4406      3298.9979      8.9110265    
   8910000   305.15293     -532.10263      1290.0626      3486.7688      12.165675    
   8915000   299.07539     -577.38762      1293.3591      3390.4323      1.9417547    
   8920000   301.90354     -549.47758      1313.0351      3463.3088      6.1586889    
   8925000   308.71305     -585.95939      1269.6357      3444.3212      0.338177     
   8930000   303.52491     -597.19119      1274.2987      3391.3578     -2.252264     
   8935000   305.55612     -589.94282      1283.4915      3425.9629      9.6930564    
   8940000   301.97506     -600.22087      1252.2678      3352.4378      9.2918268    
   8945000   298.29933     -635.3528       1256.3509      3288.519       10.735635    
   8950000   303.65875     -618.87505      1327.447       3424.0191     -4.759831     
   8955000   300.10362     -617.08562      1294.634       3361.204      -12.234478    
   8960000   294.61612     -609.06642      1286.7692      3312.2868      3.9418764    
   8965000   303.82939     -535.71589      1314.0538      3495.311       9.65339      
   8970000   304.17725     -591.13154      1255.7232      3384.6755      22.638742    
   8975000   289.24913     -574.58265      1262.5569      3274.5644      2.001749     
   8980000   301.52759     -590.89215      1296.7833      3402.2806      4.1616351    
   8985000   305.72027     -620.10236      1279.36        3393.1398      6.6185241    
   8990000   294.00177     -579.81117      1319.9571      3369.2362     -5.192844     
   8995000   300.28261     -578.60329      1272.1091      3378.7621      7.4319457    
   9000000   303.9015      -574.88183      1289.5735      3432.3096      0.70971257   
   9005000   292.98181     -537.67074      1233.4497      3315.7484      2.7046376    
   9010000   298.54401     -582.34935      1273.0162      3360.3758     -0.63518371   
   9015000   299.86701     -545.68205      1284.8074      3420.6652      5.1011314    
   9020000   301.58142     -509.21939      1296.2812      3483.9327      5.9883708    
   9025000   308.66048     -535.40871      1319.1554      3543.9215      4.5564622    
   9030000   300.50067     -533.89007      1238.6944      3392.0105      16.064681    
   9035000   310.74873     -515.72314      1317.5728      3580.6984      2.950136     
   9040000   303.25895     -549.98954      1274.7206      3436.603       8.4376281    
   9045000   296.42356     -556.13504      1276.5545      3371.1664     -0.60816553   
   9050000   300.3085      -536.70488      1288.5607      3437.3436      11.36062     
   9055000   302.49254     -559.02417      1311.0683      3457.0625      18.616534    
   9060000   302.18875     -553.08574      1295.2382      3444.4543     -7.1911303    
   9065000   301.54328     -528.46581      1280.1937      3448.2577      2.6805353    
   9070000   290.31021     -530.97486      1293.9304      3359.0343      12.46342     
   9075000   301.47673     -561.4382       1271.7888      3406.2851      11.138904    
   9080000   298.92715     -605.76124      1278.5043      3345.8783      8.9511478    
   9085000   298.98042     -565.07587      1247.8459      3356.3815      4.9761558    
   9090000   302.12652     -546.72632      1302.1954      3457.2143      17.636764    
   9095000   304.16882     -552.19505      1259.5023      3427.3157      11.178701    
   9100000   294.94594     -533.19405      1291.1075      3395.4469      3.68844      
   9105000   303.51156     -534.14485      1308.2536      3488.2397      13.799951    
   9110000   301.13857     -559.88743      1244.96        3377.9831      15.709642    
   9115000   309.39534     -553.48095      1295.0209      3508.2862      2.2312341    
   9120000   299.95007     -567.83377      1289.8533      3404.302      -4.2411098    
   9125000   300.7584      -566.03932      1290.9583      3414.4299     -7.7801921    
   9130000   303.4618      -529.63425      1234.8733      3418.925       13.004078    
   9135000   298.64994     -551.4184       1297.1203      3416.3581     -7.2149073    
   9140000   303.13005     -570.54918      1302.5523      3442.7224      2.9944573    
   9145000   303.37197     -594.47218      1306.709       3425.1195     -2.1601129    
   9150000   296.08837     -564.65767      1239.2885      3322.3804      8.6549453    
   9155000   299.62455     -538.61762      1270.0709      3410.8249      1.3023338    
   9160000   299.93751     -586.30039      1271.8953      3367.7651     -3.06412      
   9165000   292.17354     -620.42595      1311.8279      3304.1435      8.010343     
   9170000   295.80228     -619.91913      1249.358       3274.6301     -0.15061046   
   9175000   296.3458      -642.09892      1276.0706      3284.0233      0.70100277   
   9180000   300.61071     -597.66723      1291.1559      3381.679       12.616191    
   9185000   297.27882     -589.19609      1312.3858      3381.5848      13.736734    
   9190000   287.85525     -584.53871      1289.0269      3278.6136     -0.55354278   
   9195000   301.59503     -582.08222      1274.5112      3389.4216      2.1426288    
   9200000   305.41739     -597.57752      1244.0431      3377.6393      3.0298901    
   9205000   299.59207     -580.03554      1330.0648      3429.1104     -2.2041417    
   9210000   303.53023     -532.15576      1313.0191      3495.1612     -1.7971144    
   9215000   307.46925     -534.07016      1333.169       3548.6211      7.3659992    
   9220000   301.05273     -560.79337      1239.463       3370.8126      16.041382    
   9225000   299.38304     -536.39155      1271.5673      3412.3877      11.218081    
   9230000   296.98383     -544.12609      1284.6755      3396.3065      3.5850915    
   9235000   302.52555     -513.44046      1340.5461      3532.4193      5.0236632    
   9240000   303.50244     -554.05686      1322.2726      3482.2651      6.0118757    
   9245000   301.66545     -562.92317      1287.2226      3421.9217      19.890746    
   9250000   306.5056      -587.94263      1261.962       3414.9243      9.6703808    
   9255000   302.79513     -610.10802      1292.6768      3390.293      -2.2193228    
   9260000   305.36477     -571.96499      1256.1785      3414.9167      7.821006     
   9265000   300.53207     -602.46043      1277.805       3362.8316      8.5998791    
   9270000   308.80053     -576.42374      1253.2138      3438.2172      12.186906    
   9275000   299.54478     -554.55349      1289.8048      3413.9097      6.3480289    
   9280000   304.69661     -552.62703      1283.6807      3455.7818      1.753549     
   9285000   295.54376     -557.22705      1272.794       3358.4465      13.599795    
   9290000   302.68722     -580.90334      1307.0077      3432.8637      0.70153239   
   9295000   296.01169     -580.96624      1225.8868      3291.9844      2.905695     
   9300000   298.70074     -573.0587       1260.243       3358.2947      5.4423209    
   9305000   296.53599     -572.47541      1256.5662      3335.8432     -2.8966002    
   9310000   300.60345     -554.32824      1282.8942      3416.6913      0.43722295   
   9315000   297.23876     -553.10881      1300.5829      3405.5109      9.2006786    
   9320000   298.87333     -578.59939      1285.8813      3379.9357      3.1632999    
   9325000   289.38113     -589.1533       1211.0864      3209.7036      0.26460878   
   9330000   300.50365     -554.38104      1265.8401      3398.6919      9.4761692    
   9335000   302.83246     -537.02889      1295.0827      3466.112       13.633287    
   9340000   301.85405     -547.68974      1292.7774      3444.3964      2.7398556    
   9345000   302.60707     -564.49237      1259.8707      3401.4209      6.14567      
   9350000   294.75216     -539.37845      1270.0547      3366.4769      2.7921074    
   9355000   298.50679     -520.83609      1292.2487      3440.7887      10.867156    
   9360000   300.77367     -526.25231      1255.1996      3418.5948      9.8209658    
   9365000   292.31288     -552.00878      1274.981       3336.9597      1.4862986    
   9370000   302.0665      -550.18851      1228.7937      3379.8138      13.591209    
   9375000   294.78193     -565.18686      1284.8318      3355.7118      2.3861217    
   9380000   296.77507     -607.23038      1269.6927      3316.3527      7.1246317    
   9385000   302.70046     -574.07212      1308.6787      3441.4843      11.533032    
   9390000   296.75908     -568.05832      1266.5435      3352.2326      3.3059765    
   9395000   300.15069     -552.01224      1304.3715      3436.4358      1.9678813    
   9400000   295.21051     -573.35143      1248.0272      3314.5752      4.7215974    
   9405000   302.47892     -568.23023      1262.5344      3399.2007      11.606887    
   9410000   299.63761     -604.89616      1265.4798      3340.0721      9.3457869    
   9415000   302.46482     -551.19591      1277.7457      3431.3203      4.7348089    
   9420000   294.73627     -512.34419      1253.4363      3376.7507      6.9484222    
   9425000   300.77262     -537.40918      1286.7158      3438.9448      9.6654673    
   9430000   300.17574     -547.87582      1261.7328      3398.1576      0.75021037   
   9435000   297.38636     -566.34613      1305.6975      3398.7081      6.6636779    
   9440000   303.04129     -559.05025      1264.8404      3415.7157     -0.7579926    
   9445000   309.83948     -593.09871      1280.5181      3458.1373      6.3155155    
   9450000   294.55698     -595.90029      1330.449       3368.6039      0.98112695   
   9455000   294.94581     -580.89351      1256.494       3313.1327      2.3710502    
   9460000   293.92173     -556.59358      1323.5132      3395.2941     -2.8173652    
   9465000   300.89005     -563.79018      1293.7385      3420.6365      2.4061946    
   9470000   294.62074     -573.1068       1251.0471      3312.5656     -1.4487979    
   9475000   303.4256      -521.67719      1268.0286      3459.7136      10.660106    
   9480000   303.84545     -552.13648      1272.5745      3437.5548      7.5161355    
   9485000   298.18292     -556.74767      1286.2445      3395.9767      6.6412777    
   9490000   302.14197     -550.21182      1287.643       3439.3146      6.1857358    
   9495000   305.59799     -539.17453      1224.0974      3417.7116      14.706471    
   9500000   302.81411     -525.47114      1262.5483      3444.9712      3.3552897    
   9505000   300.97477     -521.72502      1264.346       3434.0669      16.134184    
   9510000   294.96661     -542.95812      1317.3858      3412.146       10.183198    
   9515000   298.8025      -531.28995      1250.2245      3390.955       12.183087    
   9520000   292.29742     -537.27714      1322.7239      3399.296       9.5638519    
   9525000   301.6391      -559.27326      1247.0289      3385.1423      5.1300565    
   9530000   302.19477     -542.6106       1269.6095      3429.3545     -3.2620273    
   9535000   301.61451     -516.87167      1276.1171      3456.4121      1.4678924    
   9540000   294.89012     -520.10855      1261.7192      3378.645       16.149638    
   9545000   305.57279     -516.20135      1285.0651      3501.4271      10.14421     
   9550000   295.98663     -550.05652      1267.5932      3364.3764      1.8731647    
   9555000   296.16856     -553.11446      1286.1199      3381.4721      4.9782954    
   9560000   303.08683     -573.34474      1310.9581      3447.9462      3.1286368    
   9565000   299.68293     -616.76224      1306.2037      3369.3351      9.3724519    
   9570000   297.71304     -585.17778      1311.3255      3388.4258      5.7080106    
   9575000   297.38286     -603.35594      1295.5039      3351.4734      4.3087737    
   9580000   294.98937     -615.75171      1324.6808      3346.8509      13.09033     
   9585000   303.21568     -580.32644      1216.2542      3347.4128     -2.1290473    
   9590000   298.79171     -583.62368      1250.8967      3339.197      -1.6950483    
   9595000   301.10102     -575.2425       1236.3236      3353.6559      12.948971    
   9600000   297.71367     -571.76195      1288.3706      3378.8923      9.1953289    
   9605000   304.16964     -571.33969      1262.0116      3410.6876      14.811176    
   9610000   297.37963     -556.67177      1249.6203      3352.2451      2.8849857    
   9615000   298.84697     -523.61903      1302.1695      3450.9687      16.768404    
   9620000   303.49959     -505.86729      1257.6466      3465.8032      9.7290316    
   9625000   287.6684      -542.9974       1245.085       3274.5421      6.9532635    
   9630000   299.5049      -559.07061      1307.3897      3426.6208      5.3561401    
   9635000   297.33075     -543.08389      1259.6498      3375.4254      15.608283    
   9640000   303.20849     -547.28782      1302.567       3466.6999      2.2470466    
   9645000   303.80991     -535.02775      1248.4599      3430.231       19.137002    
   9650000   298.93452     -560.88301      1293.7651      3406.0832     -0.60496206   
   9655000   300.19246     -571.21278      1274.3033      3387.5406      6.5830901    
   9660000   298.63305     -552.02995      1286.1732      3404.6485      5.8674913    
   9665000   303.86972     -585.22486      1287.189       3419.2978      9.2552658    
   9670000   308.49972     -560.34311      1280.6552      3479.0493      13.070303    
   9675000   300.24699     -560.34468      1293.7973      3418.3903      8.118182     
   9680000   297.72499     -541.45967      1246.3756      3367.3009      4.3165804    
   9685000   303.84535     -553.04554      1250.1979      3414.2682      15.302972    
   9690000   292.18058     -557.31076      1265.0107      3320.5044      19.705013    
   9695000   304.91011     -569.38739      1233.7038      3390.9539      3.8299       
   9700000   300.71726     -567.90124      1268.743       3389.9849      1.4097394    
   9705000   300.56812     -569.33411      1229.222       3347.6972      7.2996796    
   9710000   294.34123     -597.39057      1285.665       3320.4004      5.5904056    
   9715000   300.47592     -539.06553      1278.3653      3426.2847      11.29129     
   9720000   300.48118     -591.62252      1288.0824      3383.4918      2.5525641    
   9725000   301.84729     -591.99235      1271.8706      3379.1266      2.4450322    
   9730000   299.88153     -618.03944      1239.6785      3303.3087      12.665454    
   9735000   304.0353      -596.25254      1295.6722      3418.2341     -4.2676367    
   9740000   300.06005     -648.94641      1342.6447      3376.9643      8.9473151    
   9745000   296.27579     -612.48338      1303.863       3340.8052      13.715948    
   9750000   301.5157      -581.76118      1245.8351      3360.357       4.8071378    
   9755000   294.20146     -559.39433      1261.4554      3332.9371      13.858018    
   9760000   306.38877     -601.96776      1282.8396      3420.732       7.3297024    
   9765000   298.19077     -592.11011      1257.7324      3332.1725      8.597502     
   9770000   299.35392     -574.414        1314.2437      3416.7812     -0.13197929   
   9775000   308.16139     -601.53109      1248.022       3402.2026      15.826047    
   9780000   303.97776     -599.62559      1264.6106      3383.2849     -0.16249958   
   9785000   300.23537     -581.42766      1331.4994      3434.9056     -0.23979609   
   9790000   296.94416     -580.59789      1266.2244      3341.0289      1.096951     
   9795000   307.62352     -627.61354      1231.0731      3354.3614      5.7527194    
   9800000   300.57009     -573.83202      1266.977       3380.9721      14.917919    
   9805000   298.49501     -590.05571      1327.1733      3406.3884      5.777234     
   9810000   301.22779     -603.02525      1310.4949      3401.1781     -1.2286481    
   9815000   292.93571     -588.35217      1301.7896      3332.9946      15.20413     
   9820000   296.88169     -583.47469      1239.391       3310.7601     -3.2624269    
   9825000   298.51225     -566.06178      1295.6815      3399.0446     -2.0694519    
   9830000   306.86908     -561.89455      1270.0006      3452.2613     -5.8798693    
   9835000   297.56905     -542.69184      1272.6271      3390.9256      8.8049951    
   9840000   300.96727     -547.33298      1256.7875      3400.8333      17.228952    
   9845000   301.45382     -565.10481      1288.9108      3419.5357      6.5154705    
   9850000   304.09723     -578.56199      1283.4171      3424.2233      8.3692971    
   9855000   294.65875     -619.10356      1305.0841      3320.9458      15.530471    
   9860000   298.57936     -588.40358      1292.1667      3373.7882      2.0937861    
   9865000   298.08701     -597.10739      1245.7804      3314.2953      16.541238    
   9870000   292.58309     -577.49647      1276.0292      3314.9366      17.435092    
   9875000   296.27677     -579.70448      1323.3698      3393.0996      8.7155221    
   9880000   295.12901     -564.02045      1253.1068      3328.2569      15.820458    
   9885000   305.43218     -608.96998      1311.6187      3433.9546      6.3417492    
   9890000   304.01131     -626.47667      1260.2046      3352.3278      8.1067158    
   9895000   296.43415     -603.28165      1288.0299      3335.5899      4.070007     
   9900000   296.15868     -620.27888      1259.7724      3287.8718      11.491032    
   9905000   296.53357     -578.91307      1274.4041      3347.2218      7.106488     
   9910000   299.91172     -551.40282      1313.2567      3443.7935      8.9873216    
   9915000   299.59318     -565.57579      1269.2345      3382.7498      11.383233    
   9920000   296.48434     -579.74655      1329.5705      3401.1145      5.7167568    
   9925000   307.28846     -611.64637      1362.2319      3498.4911      2.3034346    
   9930000   305.76688     -555.53085      1293.7437      3472.5118      4.4714246    
   9935000   300.50134     -559.62883      1269.2548      3396.8382      1.0869039    
   9940000   297.8262      -597.19726      1260.1342      3326.2269      6.3274593    
   9945000   298.66932     -607.35761      1316.5344      3380.0063      11.825594    
   9950000   297.73251     -614.34276      1304.4747      3352.5842     -3.245996     
   9955000   299.86089     -565.13368      1293.3691      3409.7205      4.0252231    
   9960000   300.88507     -576.92759      1261.5252      3375.2413      0.85108914   
   9965000   296.97983     -555.62645      1295.6055      3395.7004      0.24349615   
   9970000   295.83678     -566.3921       1296.5237      3375.6313      1.4786316    
   9975000   298.08805     -561.71541      1306.9796      3410.8957      4.9489333    
   9980000   298.22419     -508.07089      1339.6073      3498.3854      9.3649451    
   9985000   298.81541     -495.61887      1281.4135      3457.9305      9.0402168    
   9990000   296.5307      -537.33127      1303.3172      3417.6911      8.3799397    
   9995000   300.59399     -557.48019      1275.9486      3406.5091     -2.3488743    
  10000000   293.29907     -589.33878      1276.4255      3309.8932      7.2889538    
  10005000   300.50248     -599.29107      1241.81        3329.7413      1.2283085    
  10010000   297.59353     -569.03245      1267.9499      3360.1268      2.1794341    
  10015000   292.58833     -608.76887      1253.1047      3260.7866      8.4342693    
  10020000   299.48149     -572.5022       1246.3621      3351.9521      13.864068    
  10025000   299.17627     -568.21538      1239.162       3346.3095      10.146955    
  10030000   303.53551     -537.06845      1300.9044      3478.181       3.988405     
  10035000   304.83912     -558.47127      1250.0668      3417.598       3.9922688    
  10040000   300.64584     -508.1083       1275.0134      3455.4095      8.2356711    
  10045000   301.826       -540.88561      1278.8122      3436.9845     -7.3136437    
  10050000   304.82284     -547.04849      1251.1088      3429.9172     -0.23045196   
  10055000   299.54861     -568.42224      1249.2041      3359.4744      3.7446644    
  10060000   305.83235     -564.37858      1241.7085      3412.2143     -8.7419785    
  10065000   300.62661     -586.81074      1236.955       3338.4767      2.6094357    
  10070000   310.48041     -600.18771      1269.7783      3446.04        10.809329    
  10075000   306.4081      -563.05588      1278.8896      3455.8667      11.777216    
  10080000   299.17311     -545.89619      1274.8568      3404.2953      12.251207    
  10085000   299.88007     -555.712        1290.7851      3416.7296     -1.9227713    
  10090000   296.77911     -552.994        1303.3183      3404.2507      10.318848    
  10095000   303.94417     -589.86192      1276.9105      3405.0481      13.709891    
  10100000   291.69458     -585.51202      1270.3038      3293.2502      15.414717    
  10105000   297.93199     -611.33421      1287.2926      3340.1944      1.8558626    
  10110000   300.43884     -546.04696      1318.8471      3459.4535      17.113857    
  10115000   298.3108      -570.09962      1272.9308      3370.4547      4.6293362    
  10120000   305.90093     -558.32484      1288.6767      3465.8496      1.522704     
  10125000   287.95786     -566.02833      1265.095       3274.1097      1.3577171    
  10130000   302.04946     -593.91341      1246.0831      3353.2259      0.0030729334 
  10135000   287.27303     -611.5355       1275.5271      3232.9106     -8.2106875    
  10140000   300.61116     -597.76689      1254.8764      3345.3038      15.951482    
  10145000   298.52099     -564.24065      1258.9808      3364.2432      7.530921     
  10150000   302.43219     -539.34619      1195.6441      3360.7766      11.736011    
  10155000   295.88935     -548.05252      1268.6477      3366.565       9.7534607    
  10160000   298.2981      -620.0195       1291.5456      3339.036       2.1907979    
  10165000   299.9551      -569.53498      1281.4039      3394.1965     -0.12347086   
  10170000   295.56471     -583.17605      1278.9279      3338.8186     -1.6435477    
  10175000   299.98924     -630.25226      1275.9341      3328.3147      2.5449861    
  10180000   305.18165     -645.38099      1221.1672      3304.8517      30.665903    
  10185000   300.31323     -630.4364       1294.6354      3349.7291      7.0598058    
  10190000   305.79761     -621.09411      1275.9247      3389.4043      3.4215032    
  10195000   304.13405     -573.41814      1251.0839      3397.3633      6.2846409    
  10200000   291.08268     -571.45482      1298.8012      3330.3329      13.134387    
  10205000   294.70907     -548.99508      1281.4788      3367.8989      19.52986     
  10210000   301.634       -584.94489      1298.8922      3411.2883      8.6366263    
  10215000   308.14305     -601.76479      1327.461       3481.244      -2.9161292    
  10220000   297.13345     -620.56199      1303.8014      3340.3346      14.310557    
  10225000   293.72268     -660.03876      1261.9901      3228.5458     -1.3730185    
  10230000   299.16591     -587.26469      1309.9157      3397.9213     -3.5251842    
  10235000   298.68157     -627.4878       1259.8134      3303.2647      13.816501    
  10240000   291.08836     -627.47816      1263.611       3239.1702      14.06165     
  10245000   298.29219     -602.92467      1261.18        3325.7124      4.0367807    
  10250000   304.31994     -586.66449      1282.1038      3416.7991      16.177866    
  10255000   303.15521     -582.21833      1252.7566      3381.4826      2.8227367    
  10260000   295.39883     -614.13782      1306.3136      3333.7591     -1.1202258    
  10265000   300.20045     -591.09182      1271.6366      3365.0663     -5.8219254    
  10270000   305.30423     -573.99642      1257.4091      3413.5744      9.0090528    
  10275000   299.04183     -542.50329      1278.8934      3410.5508      7.5742711    
  10280000   299.15792     -582.67712      1323.1875      3415.7093     -4.6119225    
  10285000   303.41766     -573.74487      1261.3715      3400.9179      13.665305    
  10290000   301.6918      -567.43902      1260.6914      3391.1102      2.2375619    
  10295000   294.76499     -566.39407      1270.5046      3340.0258      10.990496    
  10300000   300.94884     -524.16103      1250.4168      3417.4698      3.5382836    
  10305000   302.0205      -551.34324      1296.6083      3446.0623      7.2020078    
  10310000   289.4955      -539.08266      1329.3938      3379.1044      4.9619786    
  10315000   304.93415     -535.63179      1267.1041      3458.3247      2.7724322    
  10320000   295.28219     -520.20353      1245.7544      3366.0913      5.4817769    
  10325000   298.17273     -574.42027      1249.8689      3341.8375      13.28501     
  10330000   291.99623     -592.15392      1300.8376      3319.8396      3.4133963    
  10335000   300.05626     -563.1955       1253.2814      3373.318       1.3777867    
  10340000   304.63903     -580.64823      1349.2566      3492.8216      3.6784165    
  10345000   298.33774     -533.32261      1246.5591      3381.1009      1.921166     
  10350000   298.41628     -548.6524       1283.5277      3403.442       4.2559238    
  10355000   298.45248     -571.45085      1275.7324      3373.172       4.4427945    
  10360000   304.67219     -550.10894      1292.9881      3467.389       15.109296    
  10365000   295.89217     -534.18788      1300.1951      3412.0023      14.505174    
  10370000   303.09125     -556.19136      1283.4146      3437.5956      7.5243676    
  10375000   293.70639     -560.7396       1247.6299      3313.3391     -1.2977773    
  10380000   303.23714     -547.18606      1231.2859      3395.7768      26.267328    
  10385000   298.19658     -547.50558      1316.6958      3435.7924      11.533663    
  10390000   294.70963     -580.65768      1281.0301      3335.7927      13.842666    
  10395000   298.14889     -512.63388      1273.3268      3426.8685      6.2706527    
  10400000   303.92491     -550.77505      1318.3679      3485.4201     -2.7997712    
  10405000   305.77108     -562.57335      1244.6686      3416.4317      10.300706    
  10410000   305.22144     -559.44819      1301.435       3471.4082      3.0527217    
  10415000   303.11315     -577.17409      1281.7273      3415.1214      5.6608556    
  10420000   297.28946     -576.33821      1270.9166      3353.0686      12.020522    
  10425000   304.8792      -561.68679      1296.413       3461.0871      8.8545551    
  10430000   304.60765     -602.24024      1256.2708      3377.9632     -1.5351428    
  10435000   295.12508     -583.28672      1263.9325      3319.7812     -1.7072539    
  10440000   300.15188     -613.46547      1264.0192      3334.6409      9.677734     
  10445000   305.03206     -556.25844      1276.7297      3448.1991      4.5311661    
  10450000   286.23956     -544.94982      1283.099       3297.8265      2.174535     
  10455000   303.38422     -550.5112       1272.8974      3435.3784      7.3282419    
  10460000   292.81005     -560.59453      1272.2608      3330.0997      8.4541664    
  10465000   303.22451     -572.2211       1255.1227      3394.4656      9.2204021    
  10470000   297.26434     -575.34248      1296.1754      3379.0985      5.7065763    
  10475000   307.56205     -569.47346      1295.2161      3476.0948      5.4410671    
  10480000   300.62299     -559.30277      1234.0201      3363.0174     -4.6700987    
  10485000   298.5161      -521.65192      1231.5255      3379.3329      9.6702206    
  10490000   296.25912     -551.63609      1282.5924      3380.2328      9.1641502    
  10495000   296.3309      -524.77216      1229.1741      3354.3203      3.9184332    
  10500000   300.79803     -576.7456       1312.9265      3426.0462     -1.8157085    
  10505000   298.07873     -567.74035      1315.801       3413.6089      14.058482    
  10510000   305.59545     -570.82001      1300.8358      3462.7817      9.1229898    
  10515000   297.46595     -563.44656      1259.3607      3355.9826      6.703627     
  10520000   295.55803     -574.33178      1325.3977      3394.0729      1.984265     
  10525000   305.35186     -578.71045      1294.397       3446.2743      8.1741425    
  10530000   304.27171     -550.64509      1251.7438      3422.0272      0.26550127   
  10535000   303.70212     -546.98664      1261.6937      3430.5421      12.323481    
  10540000   300.53984     -577.95235      1229.9155      3339.5198      7.7663257    
  10545000   296.22782     -584.57998      1292.4962      3356.9128      4.1790933    
  10550000   302.12707     -612.35193      1276.4065      3365.8048      2.3965649    
  10555000   305.55725     -629.9835       1262.8845      3365.3253      14.096196    
  10560000   296.06229     -561.46416      1239.184       3325.2361      16.5435      
  10565000   304.77071     -556.36051      1291.9605      3460.9908      0.16707496   
  10570000   305.70508     -570.23978      1329.6277      3493.1342      11.033862    
  10575000   303.83051     -547.73701      1313.6451      3482.8912     -1.5264494    
  10580000   290.59549     -574.39209      1291.4838      3315.7216     -3.5524799    
  10585000   295.27304     -570.87598      1246.4726      3316.0552      11.985116    
  10590000   311.46305     -577.0308       1223.5789      3431.7846      1.8709466    
  10595000   297.5353      -576.15774      1296.7741      3381.3049      0.057975046  
  10600000   294.8322      -574.65547      1264.1717      3326.0325      15.539991    
  10605000   294.78139     -561.25509      1280.1301      3354.937       3.8764961    
  10610000   293.60613     -593.53473      1296.0238      3328.0413      8.4470394    
  10615000   296.22092     -587.21836      1295.2443      3356.9608     -2.5038136    
  10620000   303.30786     -576.39141      1261.6662      3397.5841      12.192221    
  10625000   302.45916     -559.39107      1276.184       3421.5128      13.940216    
  10630000   298.80038     -532.20833      1296.1635      3435.9568      2.4299799    
  10635000   305.89857     -548.44019      1301.1729      3488.2093      10.050674    
  10640000   300.1188      -591.73636      1293.5157      3385.5707     -5.3018888    
  10645000   301.33161     -594.64452      1262.3107      3362.303       11.738234    
  10650000   299.37627     -593.52032      1269.8992      3353.5303      4.9143484    
  10655000   295.99817     -578.17001      1341.4449      3410.2179     -5.2622666    
  10660000   301.75331     -553.28053      1240.3082      3385.4355      4.7343646    
  10665000   301.78781     -565.03661      1269.6075      3403.2874      8.8813405    
  10670000   298.03958     -521.57066      1281.4129      3425.0404      5.2801733    
  10675000   301.75127     -578.68279      1345.8649      3465.5718      4.592018     
  10680000   300.2288      -589.86083      1258.9266      3353.8408     -0.51679201   
  10685000   299.29066     -577.04296      1281.3103      3380.6532      11.909925    
  10690000   299.87126     -589.56658      1286.0287      3378.0399      6.1300224    
  10695000   298.33139     -583.18345      1297.6825      3382.3066      1.3777421    
  10700000   300.91781     -576.28843      1247.4437      3362.0918      10.657929    
  10705000   301.7654      -581.9804       1279.2225      3395.7582      4.83176      
  10710000   297.78875     -598.66961      1266.1184      3330.404       6.6718529    
  10715000   301.46609     -581.91144      1254.3782      3368.3062      15.178894    
  10720000   296.6957      -581.22047      1302.3273      3374.2874     -4.755441     
  10725000   306.67511     -581.74782      1279.9904      3440.6633      11.462552    
  10730000   301.28567     -559.26038      1264.3876      3399.3534      3.9440331    
  10735000   304.31744     -571.80614      1231.3614      3380.8928      6.9243821    
  10740000   297.8838      -622.84907      1347.7458      3388.7018      6.094062     
  10745000   304.39113     -602.77022      1256.9803      3376.2064      14.365121    
  10750000   299.58625     -564.20313      1274.2995      3389.1254      19.913514    
  10755000   309.20051     -576.8754       1307.1384      3495.267       9.3051993    
  10760000   301.27738     -594.85525      1273.0723      3372.369       7.6528956    
  10765000   299.89577     -565.8972       1295.3799      3411.2796      10.90007     
  10770000   297.85749     -581.22441      1290.3527      3372.698      -1.2354407    
  10775000   306.49854     -545.03382      1271.3629      3467.1708      7.8346769    
  10780000   308.18311     -566.50059      1302.3204      3491.7257      3.5421756    
  10785000   300.59012     -564.03648      1304.4964      3428.466       14.140596    
  10790000   300.69959     -617.82367      1239.94        3311.1013      9.2881424    
  10795000   294.39031     -571.77681      1272.8449      3333.6328      12.590643    
  10800000   300.79989     -553.26297      1295.8157      3432.4348      3.4830632    
  10805000   301.35113     -567.09356      1273.9633      3401.6812     -3.5011298    
  10810000   300.30394     -596.31743      1302.8459      3391.9755      14.964052    
  10815000   299.20589     -577.88077      1314.8789      3412.6259      11.908384    
  10820000   300.37391     -594.25149      1277.3319      3369.1531      16.02481     
  10825000   303.76143     -580.65267      1274.0682      3409.7809      15.189738    
  10830000   297.72113     -591.2596       1276.7305      3347.8213      8.504381     
  10835000   302.86287     -565.10388      1267.7866      3411.0129      4.0066623    
  10840000   297.45269     -562.74191      1313.5048      3410.7129      9.0006097    
  10845000   305.82678     -582.13508      1311.5867      3464.2863      10.068657    
  10850000   296.66399     -621.33144      1225.8143      3257.3798      10.72179     
  10855000   303.9544      -568.69624      1267.2549      3416.6497      9.2738295    
  10860000   306.71556     -552.23005      1265.2724      3455.8249      6.0385656    
  10865000   305.98138     -568.1819       1267.8232      3435.8585      5.0344764    
  10870000   302.5518      -546.77193      1312.352       3471.1284      2.3271687    
  10875000   297.34944     -544.38402      1307.7973      3422.4398      13.307602    
  10880000   294.90454     -534.84083      1283.3804      3385.7028      4.7584918    
  10885000   295.70081     -547.74922      1249.235       3345.7697      8.6434174    
  10890000   298.84019     -536.52039      1336.1561      3471.9933      7.6048413    
  10895000   294.84867     -580.40703      1279.5411      3335.7976      3.2766162    
  10900000   291.38995     -560.14651      1282.6417      3328.2294     -3.5335045    
  10905000   296.17572     -565.02889      1251.2546      3334.7565      15.724799    
  10910000   306.89049     -605.51839      1264.3242      3403.1526     -0.37626158   
  10915000   291.05723     -597.71078      1266.5628      3271.6109      11.925108    
  10920000   298.64833     -581.97738      1279.9334      3368.5978      24.218084    
  10925000   304.6799      -559.63577      1240.4234      3405.3663      5.7873006    
  10930000   294.41614     -582.73682      1247.6361      3297.695       7.8645441    
  10935000   306.76233     -554.08774      1306.7516      3495.8645      10.772523    
  10940000   301.01667     -546.76843      1266.4712      3411.5233      8.7534689    
  10945000   305.43508     -546.25827      1247.7006      3432.7742      14.578233    
  10950000   293.67013     -565.99361      1235.1974      3295.3284      10.197158    
  10955000   309.1651      -624.43624      1325.0712      3465.3223      8.2898932    
  10960000   298.40506     -578.17057      1272.9572      3363.2531     -7.3907342    
  10965000   296.3864      -555.17744      1259.2175      3354.4548      11.366685    
  10970000   293.86021     -582.09393      1324.8103      3370.5408      10.876107    
  10975000   301.41295     -581.81693      1272.3409      3385.8883      20.745826    
  10980000   305.36546     -578.48052      1286.0754      3438.3042      4.1045384    
  10985000   301.27175     -566.20006      1222.4466      3350.3482      4.287093     
  10990000   305.77897     -609.46528      1298.1749      3423.1168      0.23747494   
  10995000   300.40433     -554.88212      1300.1105      3431.5732      13.423723    
  11000000   302.02223     -567.75817      1296.1984      3429.253       10.993825    
  11005000   296.20256     -571.04501      1296.6681      3374.3937      8.9832017    
  11010000   296.62772     -582.07406      1243.1475      3313.6461      13.194342    
  11015000   304.04749     -579.68959      1246.4882      3385.722       7.8885268    
  11020000   302.40568     -616.8585       1302.2965      3389.6796      4.8688668    
  11025000   302.88352     -615.00022      1322.7553      3416.2698      17.160222    
  11030000   298.94153     -589.10611      1346.9389      3431.0965      16.650503    
  11035000   299.70129     -570.26661      1294.2304      3404.0217     -2.0747772    
  11040000   304.77755     -578.27213      1280.841       3428.0208      0.2220356    
  11045000   298.28022     -616.87865      1273.8881      3324.3594      13.112753    
  11050000   300.56695     -612.49659      1270.1727      3345.4751      4.538148     
  11055000   296.201       -629.81364      1273.7301      3292.6732      2.5830124    
  11060000   299.17599     -601.1739       1344.2998      3418.4863      9.700152     
  11065000   300.28522     -603.8201       1280.6306      3362.0901      1.5152754    
  11070000   299.25741     -601.53871      1244.3227      3318.8725      3.9903763    
  11075000   303.28945     -582.26653      1291.8557      3421.7339     -0.84067816   
  11080000   301.35049     -618.13897      1296.6238      3373.2905      4.2159724    
  11085000   302.2147      -605.75736      1286.4097      3383.1863      0.45860252   
  11090000   297.27175     -591.59758      1267.4237      3334.158       6.9331139    
  11095000   299.37038     -582.88046      1208.9917      3303.2099      1.5008905    
  11100000   297.3856      -560.83724      1237.0828      3335.5955      11.829368    
  11105000   302.02564     -572.22719      1310.012       3438.628       5.481954     
  11110000   300.47534     -604.58147      1296.7554      3379.1537     -5.4149464    
  11115000   297.51674     -586.83706      1213.4935      3287.1792      7.1683764    
  11120000   291.94866     -604.50489      1277.2897      3283.5153      4.9999105    
  11125000   303.05706     -610.38106      1288.0275      3387.713       10.342564    
  11130000   300.73056     -589.51123      1270.2239      3369.9748     -0.60899078   
  11135000   303.19115     -601.10092      1257.3371      3367.5018      11.64707     
  11140000   298.50534     -579.88454      1273.8451      3363.3237      6.1884882    
  11145000   298.10327     -625.30068      1256.2207      3296.6877     -4.4591962    
  11150000   303.49621     -585.6496       1296.2047      3424.5488     -2.8808261    
  11155000   302.21955     -591.45914      1291.7046      3402.8227      8.5376537    
  11160000   309.09671     -609.00648      1234.5162      3389.5854      18.427656    
  11165000   303.58905     -616.06188      1293.6013      3392.3634      4.7688662    
  11170000   306.75916     -626.47529      1312.2304      3428.9275      13.324694    
  11175000   305.85942     -638.8032       1309.9895      3406.3128      12.122004    
  11180000   297.67222     -638.5379       1305.1522      3328.5274      4.1001333    
  11185000   305.59438     -601.42683      1288.4278      3419.7573      9.9026733    
  11190000   297.79047     -586.74206      1309.0338      3385.2622      12.718211    
  11195000   289.42933     -597.49434      1232.0915      3222.7987     -2.8609573    
  11200000   302.15011     -557.68504      1297.1822      3441.4534      3.6469859    
  11205000   300.36938     -575.23113      1304.3341      3415.1352      16.536421    
  11210000   303.04264     -581.39515      1246.6374      3375.1799     -1.3180005    
  11215000   295.11381     -573.7856       1271.4484      3336.6974      4.5553275    
  11220000   302.26542     -577.22848      1249.5682      3375.3271      9.2965193    
  11225000   302.32143     -585.99834      1244.8372      3362.3271      10.890252    
  11230000   299.96546     -579.30153      1247.2122      3350.3308      5.885723     
  11235000   301.78216     -547.17854      1234.0494      3385.5367      2.5099378    
  11240000   296.8408      -539.49418      1283.6621      3398.646       1.3260452    
  11245000   300.95828     -514.36391      1293.5212      3470.4557      8.7062617    
  11250000   298.50291     -599.7059       1287.68        3357.3155      7.8493305    
  11255000   302.57584     -601.24005      1259.9804      3364.5037      8.378754     
  11260000   292.05242     -585.67653      1226.1938      3252.1756      9.9971179    
  11265000   297.80025     -621.38794      1280.6821      3322.3521      6.5067309    
  11270000   301.46592     -552.735        1287.8687      3430.9717      4.4689598    
  11275000   302.00968     -576.46607      1285.8037      3410.0381      17.455909    
  11280000   299.64033     -573.61317      1281.3587      3387.2583      17.032455    
  11285000   308.1118      -559.07194      1261.031       3457.2272      1.2599407    
  11290000   304.24724     -572.90864      1309.2305      3457.0315      8.5149835    
  11295000   297.32473     -581.41756      1277.0218      3354.4099      12.477141    
  11300000   295.5483      -597.31536      1263.5322      3309.1369      1.9788556    
  11305000   304.08587     -570.23107      1318.874       3467.9096      0.077052051  
  11310000   306.11736     -561.832        1334.235       3509.8361      13.558495    
  11315000   289.89595     -568.28232      1293.794       3317.8859      9.8167254    
  11320000   303.79937     -538.73987      1251.4643      3429.4291     -0.18629314   
  11325000   298.32304     -585.86747      1283.6721      3365.5376      7.938938     
  11330000   302.48899     -563.73055      1265.3995      3406.6557      1.3970595    
  11335000   304.84739     -584.81666      1345.898       3487.1579      12.444015    
  11340000   303.02771     -529.46566      1266.4808      3446.8192      7.8402052    
  11345000   304.74389     -574.63628      1214.7307      3365.2454      0.94882729   
  11350000   301.35763     -577.89417      1250.423       3367.3984      5.5340022    
  11355000   298.65547     -538.07666      1272.6078      3405.2367     -2.268964     
  11360000   298.7018      -550.72183      1323.425       3443.8231      4.9992594    
  11365000   305.06814     -559.66233      1293.4013      3461.7896      7.4904819    
  11370000   298.51367     -569.23817      1278.3044      3378.5039      8.0106742    
  11375000   304.63897     -544.59886      1257.5673      3437.1812     -5.1623106    
  11380000   301.58954     -556.5099       1280.4742      3420.9077      5.5239677    
  11385000   300.60616     -549.32381      1291.635       3430.4608      7.0945544    
  11390000   298.10569     -554.14849      1351.948       3463.5888      2.5870769    
  11395000   301.67585     -546.51428      1278.5376      3429.7385      13.095807    
  11400000   294.82963     -548.1603       1274.0515      3362.3846      4.1851052    
  11405000   297.83736     -586.59005      1280.0993      3356.8991     -1.8903218    
  11410000   297.83074     -561.80248      1321.7905      3423.3187     -2.4338915    
  11415000   299.81383     -549.14898      1277.7889      3409.7042      9.3288632    
  11420000   298.52115     -528.50819      1280.2497      3421.246       6.5071062    
  11425000   298.67709     -589.19935      1260.9186      3342.6183      7.5536513    
  11430000   299.52913     -613.49962      1294.2434      3359.2621     -8.9224117    
  11435000   305.61885     -628.09997      1250.7324      3355.6076      12.924605    
  11440000   309.02705     -613.9652       1302.5824      3452.07        7.9737874    
  11445000   308.95647     -605.54252      1274.3312      3431.6104      14.134378    
  11450000   302.14546     -565.3898       1287.7682      3424.2931      16.81136     
  11455000   304.88434     -596.04163      1268.2952      3398.6605      9.6109918    
  11460000   302.77617     -587.1633       1263.0806      3383.472       16.856638    
  11465000   301.21782     -568.08585      1300.5639      3426.0974      5.9437061    
  11470000   298.38579     -554.69619      1275.4728      3389.0707     -0.3583751    
  11475000   294.8488      -590.70782      1271.9235      3317.8805      14.854179    
  11480000   292.81865     -539.89747      1331.4709      3410.0838     -1.43032      
  11485000   303.35281     -533.57516      1294.9432      3474.0794      1.3457416    
  11490000   298.36575     -513.05549      1248.3925      3403.4518      7.5227248    
  11495000   302.83604     -554.6895       1240.5957      3393.9963      7.4116438    
  11500000   302.09955     -569.41711      1227.3816      3359.4685      9.5368015    
  11505000   309.65839     -531.846        1311.8661      3549.1186      21.200686    
  11510000   303.59078     -552.61924      1269.2105      3431.4306      12.523495    
  11515000   298.12194     -544.90891      1282.2133      3403.239       2.1087766    
  11520000   303.28508     -521.6743       1240.5152      3430.9465      7.9436186    
  11525000   299.94421     -530.7379       1278.26        3429.7523      9.7046371    
  11530000   294.60152     -512.89815      1314.4469      3436.0023     -0.70690704   
  11535000   296.44608     -536.31704      1307.9124      3422.5438      8.3791356    
  11540000   294.53855     -494.00962      1262.4473      3402.3282      8.7876389    
  11545000   304.31177     -510.30842      1287.1634      3498.1418     -0.27563732   
  11550000   300.05275     -545.95348      1290.5491      3427.7963      3.4701054    
  11555000   291.33535     -564.82959      1271.6379      3312.0544      2.2958417    
  11560000   295.04312     -538.05774      1317.9402      3418.2849      8.0983092    
  11565000   299.87612     -517.46472      1255.2095      3419.366       11.822978    
  11570000   303.10649     -559.38693      1308.9198      3460.0415      11.940356    
  11575000   294.22112     -514.83892      1308.9275      3425.1403      10.590344    
  11580000   305.66417     -537.51666      1259.417       3455.2809      10.829667    
  11585000   294.5877      -603.54879      1295.5809      3326.362       17.096452    
  11590000   300.97632     -571.51204      1244.8965      3364.8442      3.6137045    
  11595000   296.38713     -558.50518      1255.7921      3347.7081     -3.806258     
  11600000   300.18641     -530.9258       1296.0632      3449.5334      2.2688615    
  11605000   305.9244      -529.4992       1257.6144      3463.8228      4.7954479    
  11610000   295.00026     -538.11462      1288.6203      3388.5249      8.5347051    
  11615000   297.03737     -512.29242      1283.6687      3427.6122      4.8951055    
  11620000   295.2874      -528.50139      1194.0067      3306.0923      5.2294       
  11625000   303.12446     -529.17877      1292.3711      3473.8616      3.4446916    
  11630000   302.64271     -538.99314      1273.8988      3441.267       9.7123561    
  11635000   292.71422     -532.09812      1296.8308      3382.3092      0.189399     
  11640000   302.33779     -544.30219      1228.8188      3388.1511     -8.2955771    
  11645000   295.14224     -534.44139      1295.8661      3400.7136      14.910073    
  11650000   294.20535     -556.60737      1269.1276      3343.431       7.9353366    
  11655000   297.43952     -572.33456      1243.1507      3330.6483      2.7264925    
  11660000   297.25633     -549.10672      1283.8532      3392.9404      7.2531369    
  11665000   295.99167     -567.9483       1284.539       3363.4755      8.1242226    
  11670000   293.65267     -542.22448      1243.3037      3327.0477      11.593019    
  11675000   303.87833     -584.79164      1267.8976      3400.5167      9.5508154    
  11680000   305.51674     -584.54141      1259.38        3406.9007      5.1796614    
  11685000   302.53781     -597.79406      1310.8476      3418.4767      6.0126444    
  11690000   300.27733     -579.73688      1249.7011      3355.1733      0.52749933   
  11695000   302.28413     -590.80066      1276.4935      3388.8475      14.514152    
  11700000   296.87943     -598.95775      1239.367       3295.2329      6.9827125    
  11705000   297.78843     -565.71157      1248.4953      3345.736       3.383984     
  11710000   296.33054     -555.35041      1309.4943      3404.0591      0.35290048   
  11715000   305.75652     -561.57618      1259.2442      3431.8743      7.6833791    
  11720000   303.4827      -584.22438      1266.1778      3395.8263      2.3264876    
  11725000   291.91392     -580.52746      1317.0935      3346.9859      6.2316094    
  11730000   298.66629     -542.57209      1280.8564      3409.0868      8.7825896    
  11735000   298.72999     -581.53216      1258.0166      3347.8565     -2.6838115    
  11740000   298.38945     -593.18296      1280.4774      3355.6213      12.443308    
  11745000   294.37064     -649.16844      1341.4426      3324.663      -4.3987455    
  11750000   299.58523     -591.19971      1297.9489      3385.7692      25.284501    
  11755000   304.08349     -622.41235      1270.709       3367.5419     -5.9243486    
  11760000   302.62183     -620.72963      1297.182       3382.627       13.290889    
  11765000   302.53204     -573.91014      1267.4143      3398.8758      12.629083    
  11770000   307.36399     -597.22198      1236.2889      3387.6479      6.0965044    
  11775000   293.89599     -590.3589       1261.6639      3299.4494     -3.2020589    
  11780000   299.62347     -587.88647      1262.0208      3353.4963      12.778188    
  11785000   302.85052     -625.96034      1285.4361      3367.6953     -3.0449555    
  11790000   297.19026     -551.86264      1283.9001      3389.6406      10.817421    
  11795000   305.29277     -564.17596      1324.1204      3490.0037      9.4872664    
  11800000   293.84225     -619.28456      1244.6067      3252.986       11.428131    
  11805000   290.20201     -571.40568      1251.631       3275.3366      2.9426506    
  11810000   297.32035     -608.69183      1292.7384      3342.8131      11.177041    
  11815000   296.01105     -599.4475       1275.944       3323.5546      16.156209    
  11820000   299.26673     -586.84963      1227.9813      3317.3035      9.7943305    
  11825000   309.39914     -575.84627      1190.8686      3381.8026      9.1085652    
  11830000   302.1672      -574.92978      1280.0308      3407.2101      7.284539     
  11835000   296.01498     -600.84788      1286.1818      3332.4272      4.7429368    
  11840000   296.00218     -611.04512      1314.2779      3350.2116     -5.4001975    
  11845000   296.48687     -625.66814      1296.975       3322.6201      21.534748    
  11850000   293.26195     -598.97445      1262.3744      3285.8744     -3.0383839    
  11855000   306.0394      -609.66673      1277.9923      3405.0615     -0.27744816   
  11860000   301.07064     -584.59484      1295.3902      3403.0985     -0.73398616   
  11865000   298.24937     -587.71684      1274.1039      3353.4613      10.513681    
  11870000   294.40964     -605.37347      1271.7852      3299.1493     -0.0092342555 
  11875000   301.55036     -630.62711      1284.869       3350.8348      6.7616014    
  11880000   305.18582     -574.7154       1277.8905      3432.278      -2.5008511    
  11885000   304.98226     -576.50399      1344.7045      3495.483       11.477234    
  11890000   294.99773     -556.87511      1287.0414      3368.1629      8.241349     
  11895000   304.6163      -570.45419      1246.8408      3400.3966      11.321605    
  11900000   295.0531      -586.30427      1263.808       3315.9955      6.4989501    
  11905000   298.22553     -596.06518      1240.4961      3311.2919      6.0116139    
  11910000   296.24898     -571.6965       1243.8557      3321.345       8.7424767    
  11915000   296.80904     -575.75659      1295.7454      3374.1829      1.1287309    
  11920000   297.98843     -610.58102      1296.5994      3350.759       18.956763    
  11925000   305.10218     -638.27221      1277.7167      3367.7995      5.8435513    
  11930000   297.92603     -649.37799      1276.3239      3291.1286      15.334899    
  11935000   305.89107     -619.34951      1284.4702      3400.5302      0.64641595   
  11940000   303.97783     -641.64202      1297.4212      3374.0797      12.893765    
  11945000   300.7656      -649.55578      1288.814       3328.8337      3.0858614    
  11950000   303.07605     -610.37232      1264.2938      3364.1578      1.8059261    
  11955000   294.04252     -599.33903      1272.7501      3302.8657     -0.78237168   
  11960000   297.87127     -579.13966      1310.3335      3394.8869     -5.6500608    
  11965000   297.2999      -581.50414      1267.7234      3344.8029      14.867566    
  11970000   296.89389     -546.63764      1274.0063      3382.3216      7.423503     
  11975000   293.47549     -516.79266      1270.7845      3378.376       12.200018    
  11980000   301.53685     -531.52421      1232.5797      3397.5277      3.5490918    
  11985000   295.78415     -552.9737       1248.4871      3340.5425      3.655429     
  11990000   297.94494     -588.97425      1302.5336      3377.9112      4.8247134    
  11995000   299.04109     -572.98692      1282.9281      3384.0952      3.8694616    
  12000000   308.72442     -556.65225      1254.3737      3458.468       9.6991113    
  12005000   302.09351     -587.66718      1266.8886      3380.6715      3.5787027    
  12010000   296.47686     -561.01628      1272.3208      3362.5281     -0.24983231   
  12015000   304.55909     -572.38893      1292.1528      3443.2622      2.4291854    
  12020000   297.75141     -596.48408      1222.3244      3288.4615      3.8176713    
  12025000   299.22793     -551.56126      1249.5073      3373.7709      7.9251542    
  12030000   295.00866     -587.50222      1269.7014      3320.2935      11.751905    
  12035000   296.4425      -607.30664      1285.8523      3329.462       3.9164478    
  12040000   299.3844      -589.03565      1286.8808      3375.0692      4.3233528    
  12045000   298.5953      -590.0448       1274.7859      3354.9088      8.582699     
  12050000   298.40414     -588.71201      1271.798       3351.5442      2.0205569    
  12055000   298.9069      -553.23953      1299.7533      3419.4679     -2.5201996    
  12060000   294.3081      -564.41938      1236.387       3303.7973      9.8412809    
  12065000   300.57417     -562.76774      1293.09        3418.1858      3.9163679    
  12070000   301.29384     -553.78296      1280.6296      3421.1458      9.2063849    
  12075000   305.54642     -560.2903       1270.0773      3442.1145      13.374857    
  12080000   298.18371     -600.44325      1283.4876      3349.5314      4.8621949    
  12085000   298.54602     -566.16517      1234.01        3337.5718      3.0721669    
  12090000   299.03044     -549.99029      1324.3781      3448.4466     -2.2220018    
  12095000   302.0913      -603.41804      1319.5163      3417.5287     -10.087239    
  12100000   304.03255     -570.96644      1261.1363      3408.9598      10.994186    
  12105000   302.2841      -526.93833      1311.7387      3487.9549      9.5513753    
  12110000   293.1574      -548.92612      1224.17        3296.7835      15.646228    
  12115000   301.00858     -540.70359      1267.9437      3418.9883      7.0120419    
  12120000   301.1822      -525.01925      1307.8357      3476.1172      5.4438975    
  12125000   296.5134      -574.10318      1291.8126      3369.2598      10.837108    
  12130000   298.80044     -595.96881      1243.3623      3319.3956      3.7326148    
  12135000   298.98532     -574.04114      1271.9512      3371.5654      8.0154972    
  12140000   302.60602     -603.86119      1237.2794      3339.4513      16.045123    
  12145000   296.41264     -644.55843      1275.5346      3281.6255      6.1714541    
  12150000   298.93475     -596.15539      1274.9998      3352.0476      8.4971231    
  12155000   304.03562     -595.14926      1233.8547      3357.5227      26.860488    
  12160000   306.50946     -604.9447       1258.5119      3394.5066      4.9747347    
  12165000   294.6254      -601.31886      1273.4747      3306.8229     -0.013916181  
  12170000   301.24157     -595.19999      1256.4264      3355.0581     -6.7682692    
  12175000   301.56012     -591.40431      1244.426       3349.702       8.9672642    
  12180000   309.43213     -559.88106      1253.3851      3460.5793      21.59761     
  12185000   302.54181     -530.90757      1274.2223      3448.7737      11.830635    
  12190000   293.08734     -527.27297      1308.6544      3402.2945      11.552364    
  12195000   288.57135     -494.55697      1272.8022      3358.7744      16.05634     
  12200000   297.84863     -549.91641      1280.946       3394.5201      1.763991     
  12205000   304.52319     -552.25414      1257.7441      3428.6673      3.2885585    
  12210000   308.18009     -552.10718      1245.7203      3449.4921      15.20813     
  12215000   295.12676     -597.47742      1319.8634      3361.5365      1.5309571    
  12220000   296.32713     -610.60057      1301.814       3341.0981      7.1265276    
  12225000   299.62457     -584.29513      1282.1567      3377.2333      4.87758      
  12230000   303.98453     -600.81347      1292.9498      3410.4967     -4.2156032    
  12235000   308.24954     -620.20761      1308.4986      3444.7909      16.865601    
  12240000   296.1971      -639.87022      1276.8697      3285.7213      14.632052    
  12245000   291.31163     -607.88199      1260.2609      3257.4128     -5.3280866    
  12250000   298.33602     -580.93561      1300.9237      3387.8371      12.800978    
  12255000   295.5858      -562.21102      1271.4391      3352.4835      6.6902817    
  12260000   296.8198      -559.68372      1239.2745      3333.8811      6.9495604    
  12265000   298.92027     -547.45104      1293.8901      3419.5128      7.6677073    
  12270000   304.79999     -556.58886      1290.8838      3459.9476      9.1867278    
  12275000   307.07927     -555.72841      1272.626       3462.9325      6.2580413    
  12280000   302.70903     -593.84255      1241.8802      3354.992       13.982671    
  12285000   301.36937     -584.03902      1268.9513      3379.8868      4.3473824    
  12290000   306.45162     -590.0311       1238.6492      3389.0404      16.425798    
  12295000   297.90761     -570.25463      1300.8589      3394.6222      6.1344365    
  12300000   305.14238     -551.15726      1242.408       3419.9652      5.2446237    
  12305000   300.78547     -546.79573      1300.6455      3443.6029     -2.1102116    
  12310000   296.56211     -579.87959      1297.1924      3369.2988      11.249308    
  12315000   298.19851     -537.39676      1318.8511      3448.0737      13.76542     
  12320000   299.44123     -554.77593      1246.0483      3369.0047     -1.4732723    
  12325000   304.74646     -548.40541      1279.1878      3455.9564      8.4552536    
  12330000   297.9106      -602.31197      1268.4256      3330.1584      4.8092442    
  12335000   303.86663     -610.7079       1303.4435      3410.0418      6.1952473    
  12340000   291.79934     -601.13416      1265.1124      3273.3735     -1.7507992    
  12345000   295.46984     -552.20639      1308.0145      3398.0266      5.7125089    
  12350000   297.12489     -583.67231      1263.6503      3336.9966      2.1811733    
  12355000   305.31706     -570.36447      1262.5753      3422.4873      7.7339066    
  12360000   298.30581     -557.52609      1286.1232      3396.176       8.6369786    
  12365000   292.23008     -557.35607      1308.2715      3364.1625     -3.6404349    
  12370000   296.58703     -574.48966      1267.9593      3345.6785      3.6638326    
  12375000   301.06238     -572.26267      1337.5173      3457.4838      12.173904    
  12380000   292.52775     -562.66253      1274.727       3327.9735      1.0254129    
  12385000   298.37541     -556.04074      1334.197       3446.3576      11.877544    
  12390000   294.46201     -546.74583      1312.3445      3398.8046      12.555172    
  12395000   299.46819     -525.47093      1260.1624      3412.6649      8.8316762    
  12400000   299.69886     -546.06008      1300.4984      3434.4745     -3.2094955    
  12405000   298.14629     -537.48351      1229.7509      3358.4197      8.7358646    
  12410000   295.76961     -525.77152      1281.3873      3400.5149      4.8147764    
  12415000   301.16155     -589.4722       1304.8149      3408.4589      2.0042789    
  12420000   300.40061     -561.47747      1268.445       3393.279      -0.022465582  
  12425000   297.63053     -553.03121      1332.5641      3441.0732      14.320364    
  12430000   308.95887     -572.10957      1294.504       3485.2376     -6.2786953    
  12435000   298.60573     -587.32166      1289.7531      3372.6923      3.9009667    
  12440000   304.5069      -579.31525      1262.5906      3406.3071      11.084477    
  12445000   306.67533     -602.18966      1225.8106      3366.0437      1.7351147    
  12450000   293.88434     -574.74096      1312.3505      3365.6498      5.6393066    
  12455000   300.8048      -592.26548      1288.8012      3386.4616      2.0412218    
  12460000   306.95631     -642.75524      1264.3203      3366.5005      14.096955    
  12465000   301.02768     -604.3708       1322.6232      3410.1714      16.882985    
  12470000   304.62066     -575.63661      1254.914       3403.3264     -3.9933812    
  12475000   300.31944     -585.12874      1312.8249      3413.2818     -0.34570015   
  12480000   293.54687     -601.98918      1207.6179      3230.6511      13.318101    
  12485000   306.76853     -596.79468      1258.1294      3404.5908      4.414758     
  12490000   304.69677     -620.64435      1263.7614      3367.8466      8.547152     
  12495000   304.08056     -613.06734      1299.1886      3405.3404     -1.9049933    
  12500000   298.0289      -628.37438      1303.7992      3340.5275      8.9475239    
  12505000   296.91416     -634.48857      1296.03        3316.6755      1.7168886    
  12510000   301.87854     -590.9429       1239.8921      3348.4769      10.158658    
  12515000   306.59822     -608.26604      1283.9967      3417.4638      10.938102    
  12520000   300.60483     -577.02674      1265.5398      3376.6508      14.27254     
  12525000   303.40107     -568.00473      1340.3738      3485.5119      8.8771722    
  12530000   300.98727     -605.0544       1283.5189      3370.0221      3.4049777    
  12535000   297.47477     -588.10001      1286.9749      3359.0222      5.6925634    
  12540000   294.09291     -608.77265      1261.4088      3282.5414      4.7825735    
  12545000   299.56092     -588.35727      1266.1006      3356.5459      7.2094757    
  12550000   298.08322     -606.11906      1245.6649      3305.1342      6.1959003    
  12555000   293.55057     -613.65916      1270.0668      3281.4632      0.72656571   
  12560000   308.42321     -629.13624      1268.1587      3397.0754      11.490533    
  12565000   302.05103     -602.52269      1310.9022      3409.4498     -0.89943962   
  12570000   301.86229     -601.93835      1285.2586      3382.7027      11.732187    
  12575000   305.36171     -568.0518       1331.7431      3494.3671     -8.3440547    
  12580000   297.54113     -568.714        1264.8931      3356.9199      4.403359     
  12585000   299.34849     -580.13034      1285.2874      3382.0601      10.021221    
  12590000   306.58462     -566.88753      1252.4254      3427.1495      9.4975542    
  12595000   302.61745     -527.80365      1280.8811      3459.2129     -4.5771785    
  12600000   306.12337     -544.93565      1307.8307      3500.3819     -8.0576845    
  12605000   299.00979     -561.6053       1255.1119      3367.3807     -4.4445769    
  12610000   301.95511     -548.44685      1285.9653      3437.7309      1.4784987    
  12615000   294.18393     -516.93241      1324.6547      3438.4415     -1.3612857    
  12620000   294.10144     -544.29593      1287.8702      3373.5559      16.075139    
  12625000   303.08838     -551.66956      1314.4463      3473.1235      1.8734593    
  12630000   315.08124     -534.529        1256.8858      3539.9487      16.286247    
  12635000   299.72977     -546.48815      1250.5189      3384.3432      9.5780993    
  12640000   295.18334     -537.73098      1298.1671      3400.0926      12.30315     
  12645000   302.54916     -550.27491      1264.7867      3420.0365      5.3439523    
  12650000   301.19425     -533.573        1257.6737      3417.5092      12.145923    
  12655000   301.88212     -547.70416      1261.3475      3413.2031      4.3943618    
  12660000   299.1775      -558.85151      1276.6937      3393.216       12.20895     
  12665000   306.46286     -569.7505       1249.786       3420.5583      7.9713753    
  12670000   300.64967     -588.10373      1257.6482      3358.0831      16.411418    
  12675000   299.28528     -556.54504      1259.808       3379.6007      5.8815683    
  12680000   301.20093     -569.28138      1235.7835      3359.9704      10.196227    
  12685000   298.87428     -538.85884      1276.4744      3410.2779     -0.75617638   
  12690000   303.1103      -530.5115       1349.1509      3529.1821      2.4241058    
  12695000   301.80447     -504.00563      1284.4962      3479.356       17.857207    
  12700000   300.93921     -537.0373       1299.2484      3453.339       8.4186311    
  12705000   298.07002     -528.13248      1251.205       3388.5429      6.2291139    
  12710000   306.27224     -576.32691      1266.4963      3428.9875      22.538227    
  12715000   297.02307     -561.19236      1294.9136      3389.8293     -2.5527514    
  12720000   300.78009     -598.66498      1273.5429      3364.5829      6.8354384    
  12725000   303.16427     -549.05772      1311.1959      3473.1635      19.355764    
  12730000   309.21636     -529.50515      1270.9454      3506.5859      10.806975    
  12735000   300.19306     -524.63944      1253.9438      3413.7599      15.914042    
  12740000   297.65811     -529.15013      1287.3439      3419.9807      13.400171    
  12745000   294.18879     -581.96289      1271.3949      3320.1947      4.51451      
  12750000   299.34172     -573.41486      1261.5015      3364.9291      11.846497    
  12755000   300.18996     -541.40996      1253.8456      3396.8634     -1.940806     
  12760000   299.01752     -576.1095       1302.3117      3400.1455     -3.7765199    
  12765000   298.87625     -577.612        1267.7673      3362.8353      5.1251123    
  12770000   296.32504     -597.6222       1282.5129      3334.7566      1.1527425    
  12775000   298.66828     -603.02344      1260.5145      3328.3113      1.133135     
  12780000   299.62491     -594.87135      1312.1015      3396.605       3.4037521    
  12785000   298.31772     -583.54923      1272.6183      3356.7545      14.687529    
  12790000   295.6674      -579.3139       1270.3696      3335.0409      1.7200885    
  12795000   290.43389     -599.3825       1277.9789      3275.7812      2.4247225    
  12800000   302.43004     -586.96821      1231.8547      3349.3461     -2.1540047    
  12805000   297.38337     -574.83459      1270.2739      3354.7693      12.139314    
  12810000   300.21283     -618.13255      1227.1869      3293.6867      5.7241354    
  12815000   304.70271     -599.64796      1263.1407      3388.2754     -1.7459215    
  12820000   298.03166     -573.83275      1235.6179      3326.9125     -1.5124252    
  12825000   296.4929      -578.62719      1314.9149      3387.6548      11.970783    
  12830000   303.92528     -577.34741      1254.6156      3395.0987      11.330551    
  12835000   301.29136     -564.07343      1284.2145      3414.4181      5.3149859    
  12840000   296.91206     -559.94161      1276.3099      3371.4837      5.0019194    
  12845000   305.78311     -570.97717      1268.9494      3432.4163      9.2802807    
  12850000   297.82654     -565.99755      1294.1779      3391.4734     -7.1009171    
  12855000   307.85293     -564.11663      1307.0966      3495.9333      2.0852279    
  12860000   302.64347     -581.69059      1288.4341      3413.1116      10.462127    
  12865000   303.35695     -588.02217      1259.3349      3384.0611      14.961024    
  12870000   296.79338     -590.22306      1316.4273      3380.2582      2.315531     
  12875000   303.00362     -576.36025      1285.7493      3418.9778      11.790144    
  12880000   298.04493     -571.61162      1272.531       3366.1654      1.8274905    
  12885000   296.81928     -537.22167      1262.9278      3379.9918      9.4038185    
  12890000   305.57542     -532.82827      1251.0486      3450.8072      3.7646247    
  12895000   293.78946     -561.22262      1251.5087      3317.4779      7.522692     
  12900000   304.08899     -532.80582      1310.5069      3496.9956      14.538303    
  12905000   307.01401     -556.07224      1263.3755      3452.7546      5.0881496    
  12910000   303.99763     -579.26103      1266.1104      3405.327       9.1436638    
  12915000   293.81597     -546.52335      1291.4014      3372.3068      2.5864233    
  12920000   307.18251     -554.17703      1295.1752      3487.9563      13.190272    
  12925000   298.77812     -583.78989      1269.4172      3357.4298      0.070018852  
  12930000   303.78971     -564.6437       1267.6339      3419.6085      2.9547153    
  12935000   304.14822     -567.09269      1228.744       3381.4755      6.9362901    
  12940000   297.87095     -596.87255      1235.533       3302.3507      7.9890589    
  12945000   302.59588     -579.30223      1295.4911      3422.1314      9.0692238    
  12950000   301.16757     -568.09881      1287.6177      3412.6889     -3.7286559    
  12955000   301.66314     -569.18344      1314.2311      3442.6492      11.848685    
  12960000   301.7968      -592.76913      1269.6799      3375.7076      11.601418    
  12965000   300.14028     -609.40625      1216.0081      3290.5853     -2.2377766    
  12970000   302.35001     -616.74972      1225.5007      3312.4948      2.4509534    
  12975000   298.91808     -550.73235      1275.7507      3398.0724      13.604343    
  12980000   296.67462     -522.39375      1238.8072      3369.4055      0.73779766   
  12985000   296.87529     -582.14826      1264.5704      3337.2087      6.0731826    
  12990000   296.23627     -597.80229      1316.2415      3367.5114      4.3075141    
  12995000   300.27429     -607.02662      1314.8709      3393.0262      2.5668486    
  13000000   297.55671     -594.22176      1297.4623      3364.1206      2.9521417    
  13005000   298.99984     -581.37244      1235.4749      3327.8876      19.280688    
  13010000   303.45242     -584.23232      1240.9763      3370.346       16.000447    
  13015000   300.94686     -583.22947      1299.7699      3407.7367      1.40416      
  13020000   306.90313     -572.33796      1293.6926      3465.8144     -2.1501662    
  13025000   298.67807     -560.47384      1261.4603      3371.8943     -0.60647926   
  13030000   302.3192      -554.30481      1304.9748      3454.1384      1.0974504    
  13035000   301.93203     -557.36886      1294.4567      3437.094      -2.2895629    
  13040000   303.5404      -566.28991      1250.2561      3398.355       6.2971198    
  13045000   299.78727     -564.96976      1287.476       3403.3329      9.9029739    
  13050000   304.72842     -598.13383      1287.7887      3414.6675      14.569971    
  13055000   304.40481     -574.33913      1270.6345      3418.4141      7.4190887    
  13060000   293.63929     -611.51195      1256.1547      3270.4916     -4.8059012    
  13065000   298.14649     -587.58998      1264.4268      3342.991       13.713762    
  13070000   305.1711      -563.11399      1272.8636      3438.7208      13.461913    
  13075000   301.51672     -595.22041      1220.7224      3321.7942      5.5155697    
  13080000   299.34467     -594.21448      1238.5592      3321.2135      10.091313    
  13085000   298.24318     -553.03795      1274.5994      3388.5802      6.8926884    
  13090000   295.83056     -583.00817      1294.3278      3356.7637     -3.1646472    
  13095000   304.55489     -586.71892      1315.5289      3452.2708      21.894555    
  13100000   299.28542     -564.41656      1284.8829      3396.8052     -2.2702832    
  13105000   304.47953     -580.74091      1304.6317      3446.6777      2.0607163    
  13110000   300.99919     -550.75966      1296.3346      3437.2392      19.995356    
  13115000   294.5401      -533.96458      1224.2484      3324.1881      11.910679    
  13120000   302.42866     -580.2692       1276.6423      3400.8202     -0.81858515   
  13125000   298.24329     -593.52923      1289.8271      3363.3177      9.1036361    
  13130000   294.06563     -547.4268       1283.6605      3365.895       9.4647309    
  13135000   294.35109     -586.08203      1280.8699      3327.0019     -0.22975699   
  13140000   300.86638     -554.33955      1255.281       3391.4181      11.492551    
  13145000   292.31273     -562.10022      1288.3907      3340.2766     -0.33351638   
  13150000   297.96152     -554.67341      1277.3654      3387.1921      5.0076206    
  13155000   303.53589     -590.15667      1253.7382      3377.93        9.4653897    
  13160000   301.23116     -552.82514      1297.0634      3437.9769      15.629412    
  13165000   299.86082     -589.51518      1253.9571      3345.9263      13.793806    
  13170000   297.18809     -616.92436      1302.3907      3343.0501      9.3150347    
  13175000   295.46067     -618.29196      1280.4445      3304.2889     -3.1261451    
  13180000   303.10351     -542.18751      1330.357       3498.6515      7.0428347    
  13185000   295.61352     -532.08671      1325.0647      3436.4812      3.0801876    
  13190000   292.29214     -576.15044      1298.7859      3336.4375      7.249801     
  13195000   300.83728     -591.74922      1273.5864      3372.0535      10.985352    
  13200000   300.59085     -579.2986       1274.5868      3383.3009      7.1902234    
  13205000   304.19817     -594.64786      1247.6242      3373.2472     -3.2894424    
  13210000   295.664       -581.31693      1268.0114      3330.6491      14.845571    
  13215000   305.72814     -572.38257      1323.9207      3485.4907      4.4188056    
  13220000   303.0151      -600.32919      1246.6321      3355.9942      4.9074978    
  13225000   295.67046     -582.05126      1258.8132      3320.7744      2.6809598    
  13230000   292.08942     -600.90718      1301.0665      3312.1486     -0.91417801   
  13235000   299.78516     -585.53777      1298.7542      3394.0244      10.292038    
  13240000   304.31868     -606.92289      1286.9457      3401.3714      13.23194     
  13245000   297.28213     -603.96448      1239.2225      3293.6826      4.5751421    
  13250000   310.16584     -608.94363      1263.3482      3428.0409      10.779354    
  13255000   300.98665     -619.10944      1272.8052      3345.2479      13.748726    
  13260000   304.45871     -643.29898      1302.3706      3381.6724      4.8441624    
  13265000   298.8523      -602.37256      1281.6636      3351.7569      9.6291236    
  13270000   298.32204     -630.04508      1269.909       3307.588       2.9835877    
  13275000   299.31617     -602.24187      1314.3851      3388.7572      5.1011073    
  13280000   297.44359     -568.37134      1263.0517      3354.5489      17.318411    
  13285000   303.07562     -564.11976      1283.0797      3429.1925      8.4548082    
  13290000   301.1767      -560.88387      1283.029       3415.3967      9.0849799    
  13295000   297.28595     -568.56798      1211.5153      3301.4061      3.9835051    
  13300000   287.45582     -581.05934      1300.7972      3290.2915     -3.874217     
  13305000   306.95771     -541.63411      1342.2657      3545.5795     -5.1213622    
  13310000   304.8518      -562.77577      1326.025       3489.3651      3.7433394    
  13315000   306.07219     -574.82262      1262.0591      3424.2657      1.2641916    
  13320000   301.34892     -613.79677      1282.1706      3363.1655      14.215245    
  13325000   304.84977     -603.81413      1320.5242      3442.8079      5.6991029    
  13330000   314.15764     -571.22547      1291.841       3529.9483      15.843711    
  13335000   297.39061     -540.79753      1299.3409      3417.9382      17.581699    
  13340000   305.38786     -593.05164      1318.7661      3456.6241      1.0790459    
  13345000   299.72234     -563.94203      1290.6654      3406.9694      17.472273    
  13350000   298.47703     -558.67407      1291.9352      3402.3712      10.921645    
  13355000   296.52766     -527.54025      1229.554       3353.6916      5.0628399    
  13360000   302.95855     -541.41899      1292.5466      3460.3133     -1.7178276    
  13365000   299.16097     -545.13199      1228.2238      3358.318       10.543707    
  13370000   304.96392     -587.9896       1256.2242      3395.3531      10.215664    
  13375000   302.52358     -543.14953      1230.6087      3392.7552      6.4236154    
  13380000   297.01174     -532.80039      1267.4693      3390.6757      12.321968    
  13385000   296.23356     -557.1533       1299.7435      3391.6382     -4.8768313    
  13390000   297.32803     -532.78512      1313.5122      3439.5622      6.7729493    
  13395000   298.80412     -552.79401      1245.1364      3364.3774      9.2228555    
  13400000   296.73072     -556.79067      1259.2202      3355.9233      6.6855186    
  13405000   297.43574     -543.00065      1261.36        3378.1576      5.9253504    
  13410000   296.72267     -584.62654      1245.4132      3314.2084      4.0392497    
  13415000   294.86777     -584.86954      1270.1701      3322.135       11.823166    
  13420000   303.95627     -641.78773      1317.7324      3394.0524      3.740548     
  13425000   302.22042     -590.26727      1298.0899      3410.4076      14.130625    
  13430000   308.26521     -587.37464      1250.7083      3419.9738      0.96870611   
  13435000   303.83942     -581.65394      1246.33        3381.7388      1.600649     
  13440000   305.22153     -595.45901      1303.5092      3437.4724      5.2361196    
  13445000   297.12064     -571.30154      1323.2518      3408.9308      4.4323668    
  13450000   296.68171     -570.26828      1283.8677      3366.6549      5.3742597    
  13455000   296.12338     -568.90481      1271.6314      3350.7893      7.7061842    
  13460000   303.20664     -580.67087      1267.5542      3398.2875      9.295719     
  13465000   299.00285     -547.50943      1236.4283      3362.731      -1.5878301    
  13470000   304.07324     -568.94155      1251.3325      3401.5447      10.617111    
  13475000   305.94002     -586.68736      1318.5733      3467.7332      9.1869958    
  13480000   301.06598     -595.44857      1284.3191      3381.132      -2.1596611    
  13485000   302.86593     -582.82258      1269.9936      3395.5284      2.5070057    
  13490000   302.98805     -568.49289      1249.9306      3390.8872     -0.47898526   
  13495000   300.66843     -565.01129      1275.9592      3399.6543      6.0917792    
  13500000   290.71354     -591.46862      1285.4442      3293.661       8.0801016    
  13505000   300.22861     -604.57603      1261.3904      3341.5878      11.760009    
  13510000   299.60487     -578.08748      1255.3339      3356.442       3.2077861    
  13515000   307.50923     -570.17325      1325.6612      3505.3677      2.3817324    
  13520000   300.78311     -577.53657      1265.2989      3377.4943      10.14701     
  13525000   299.45328     -573.46568      1282.3611      3386.7354      12.232868    
  13530000   296.35708     -571.03064      1293.7178      3372.8396      3.9656136    
  13535000   297.39863     -556.98525      1290.2125      3392.6937     -4.5878729    
  13540000   304.51292     -555.62329      1245.6955      3413.1577      8.7999472    
  13545000   298.82461     -576.71927      1282.649       3378.1479     -0.23890658   
  13550000   304.55381     -586.04555      1267.9852      3405.3909      8.9150614    
  13555000   301.44763     -563.26059      1255.2348      3387.6486      8.8814755    
  13560000   299.28767     -580.08556      1223.8616      3320.1351      14.051061    
  13565000   299.47509     -614.05604      1280.0872      3344.0662     -0.47697916   
  13570000   300.49168     -618.54559      1262.9809      3331.5612      2.6090244    
  13575000   299.7144      -594.3452       1290.3133      3376.1431      10.356107    
  13580000   294.5966      -621.81737      1248.676       3261.2681      16.859909    
  13585000   294.84306     -569.90489      1285.3508      3352.0593      10.622067    
  13590000   298.56378     -552.42613      1272.0953      3389.5549      8.075297     
  13595000   294.79432     -567.97365      1303.6565      3371.8604      0.89969958   
  13600000   299.11917     -570.80554      1303.7638      3407.8106      7.2873388    
  13605000   298.81826     -552.26378      1257.9329      3377.8305      8.2582444    
  13610000   298.52081     -553.788        1313.7018      3429.4153     -0.13244157   
  13615000   302.41443     -549.3994       1238.0831      3393.0036      4.8392671    
  13620000   318.22592     -511.22595      1248.089       3582.5761      8.7740986    
  13625000   298.42569     -526.42218      1257.7275      3399.9563      4.8446211    
  13630000   292.46013     -571.3026       1278.3467      3322.3484      4.6257826    
  13635000   307.87945     -611.11523      1356.7645      3498.8397      2.6725638    
  13640000   296.48313     -603.09352      1270.6368      3318.823       8.359572     
  13645000   299.58448     -594.03358      1292.2364      3377.2162      7.9980661    
  13650000   302.95266     -618.02568      1235.3924      3326.4998      5.865544     
  13655000   296.30522     -599.13247      1293.325       3343.8813      14.752098    
  13660000   300.11853     -548.60414      1306.0868      3441.2717      5.6300776    
  13665000   296.21217     -588.1393       1271.4431      3332.1605      5.8773476    
  13670000   290.77516     -549.77238      1323.9155      3374.3798      13.097807    
  13675000   305.36761     -580.98873      1332.2575      3481.9973      2.1511827    
  13680000   303.13454     -614.56592      1252.4775      3348.6711      17.819852    
  13685000   301.21581     -602.54207      1297.7977      3388.857       13.654348    
  13690000   295.60909     -608.88092      1335.4332      3370.016       6.6690623    
  13695000   295.2008      -596.72061      1279.9157      3323.0077     -2.4187419    
  13700000   297.91421     -568.54134      1320.51        3416.0457     -6.4726245    
  13705000   308.24076     -600.41016      1283.2266      3439.2379      1.8024612    
  13710000   299.69585     -610.60959      1333.3651      3402.7647      0.96999368   
  13715000   301.13021     -615.30118      1271.6667      3349.2014      8.5972314    
  13720000   305.70469     -566.37413      1302.5321      3469.9008      7.3623513    
  13725000   291.21356     -572.12086      1278.4376      3310.4736      0.41809167   
  13730000   304.45643     -580.88171      1281.1414      3422.8401      3.9313535    
  13735000   299.60991     -621.14543      1243.0281      3301.1233      4.4095443    
  13740000   299.82023     -648.64014      1322.2419      3354.7233      3.3617496    
  13745000   303.46352     -618.70019      1256.2843      3351.2854      1.0332546    
  13750000   306.93485     -566.2344       1284.1594      3462.6685      12.215104    
  13755000   298.49788     -590.55282      1283.8449      3362.5885      3.5269204    
  13760000   294.67858     -587.6337       1205.6107      3253.1196      12.475542    
  13765000   303.38234     -584.58844      1268.5972      3396.9842     -1.4827862    
  13770000   302.33278     -594.88259      1287.767       3396.4742      13.760939    
  13775000   293.67719     -615.15806      1315.4734      3326.5031      0.48920486   
  13780000   301.67125     -578.61594      1311.3853      3430.4434     -6.0975793    
  13785000   296.62401     -583.75705      1275.4138      3344.1962      1.9921381    
  13790000   304.52741     -558.47394      1279.7333      3444.4744      5.7967673    
  13795000   299.95022     -539.14674      1289.5399      3432.6771      9.5453212    
  13800000   294.4194      -578.46837      1289.1673      3343.5239     -3.1891264    
  13805000   294.73426     -579.19935      1260.2247      3316.6659      10.327124    
  13810000   299.32155     -552.87922      1284.3496      3408.1325      5.4245775    
  13815000   302.07486     -608.70955      1214.875       3307.4488      12.340879    
  13820000   299.32618     -562.56494      1281.0461      3395.1846     -0.95810074   
  13825000   302.72316     -581.31277      1291.7881      3417.5561      16.729602    
  13830000   305.60532     -557.56534      1252.8622      3428.1511      12.567843    
  13835000   297.35003     -551.33291      1267.7391      3375.4381      10.011972    
  13840000   296.62216     -528.38338      1321.3372      3445.4767      7.0344026    
  13845000   293.26218     -591.57382      1260.7485      3291.6512      4.8116025    
  13850000   295.01311     -593.10765      1263.3829      3308.4094      18.134295    
  13855000   301.38086     -580.27203      1270.7512      3385.5564      7.5915469    
  13860000   296.66848     -582.42084      1296.6735      3367.1898      14.957949    
  13865000   298.49303     -565.26438      1215.3291      3319.3179      0.5874488    
  13870000   304.08523     -551.23803      1288.1668      3456.1897      4.3421735    
  13875000   296.14473     -582.81716      1262.4021      3327.8385      8.0037308    
  13880000   302.01761     -566.05416      1285.2082      3419.9254     -5.3313224    
  13885000   304.6843      -535.06642      1294.0528      3483.6044      12.90309     
  13890000   296.95407     -544.69774      1331.0802      3441.8734      9.6149547    
  13895000   299.96516     -567.49946      1345.5211      3460.4391      3.4255635    
  13900000   301.44777     -578.32573      1284.947       3402.2968      10.287324    
  13905000   304.09608     -562.69286      1304.1053      3460.7704      2.49497      
  13910000   297.55734     -564.97013      1277.5226      3373.4382      2.5174303    
  13915000   298.6053      -533.06531      1288.1099      3425.3017     -2.1235554    
  13920000   294.15038     -568.83128      1284.1385      3345.7265      2.9654426    
  13925000   301.68581     -539.93257      1306.5751      3464.4468      18.155673    
  13930000   302.28705     -577.51772      1330.8927      3456.5558      17.476429    
  13935000   300.63704     -541.42475      1240.6116      3387.6126      1.7581634    
  13940000   299.33889     -578.35062      1278.6704      3377.1369      10.517832    
  13945000   299.05198     -580.74117      1319.5936      3413.1039     -2.4657366    
  13950000   301.71439     -552.9111       1290.4244      3435.5732      27.803145    
  13955000   298.75995     -562.89156      1264.4811      3373.2295      8.201468     
  13960000   293.53846     -600.64385      1288.9322      3313.2355      1.0280559    
  13965000   295.73091     -598.02755      1308.6871      3355.2125      13.101973    
  13970000   304.47431     -610.81001      1278.7216      3390.6518      6.7821693    
  13975000   298.39319     -653.41496      1221.5116      3236.4569      5.9096242    
  13980000   298.95354     -593.21807      1276.1958      3356.3489      10.672577    
  13985000   298.11684     -650.65784      1247.541       3262.7722      5.4762405    
  13990000   296.74297     -647.71663      1256.8889      3262.7756     -1.2980392    
  13995000   298.10493     -645.12849      1253.9684      3274.6224      2.2411162    
  14000000   292.82847     -628.12614      1292.5945      3283.0665     -3.2616769    
  14005000   296.9148      -575.11108      1226.0443      3306.0731      8.7587761    
  14010000   299.07622     -582.1492       1251.4666      3343.7857      5.6361051    
  14015000   299.84545     -560.54497      1317.7676      3438.5696      3.2035888    
  14020000   294.86146     -562.23015      1304.2232      3378.771       0.83421881   
  14025000   300.30092     -548.58518      1267.769       3404.6038      2.3384363    
  14030000   296.94493     -581.87613      1312.3712      3385.9044      9.785198     
  14035000   292.03953     -577.80028      1299.8193      3333.5622     -2.4205007    
  14040000   304.09459     -571.16914      1306.7133      3454.8888      6.0187034    
  14045000   299.32992     -564.8547       1270.0864      3381.9686      14.039733    
  14050000   299.22896     -548.55704      1245.7754      3373.0525      3.8015032    
  14055000   301.23994     -545.4131       1276.4559      3424.8599      7.0444184    
  14060000   299.17702     -577.38441      1263.8587      3361.8439      1.7887204    
  14065000   300.29014     -584.74529      1284.6558      3385.2341      12.434321    
  14070000   295.84633     -592.76127      1217.9659      3270.7898     -2.663642     
  14075000   293.3675      -626.62591      1285.9174      3282.7099     -7.7632304    
  14080000   295.45306     -582.2137       1293.6297      3353.4844      14.61335     
  14085000   302.50588     -592.20041      1258.2682      3371.2055      5.9094535    
  14090000   293.55004     -583.81347      1209.7435      3250.9807      1.5548393    
  14095000   299.98418     -590.69923      1285.0864      3376.9748      9.4831307    
  14100000   313.1917      -613.87758      1274.4458      3461.2631      15.130147    
  14105000   291.67067     -555.48175      1294.6695      3347.4324      1.0793895    
  14110000   300.24625     -571.37472      1323.4439      3437.0003     -2.9208543    
  14115000   296.56573     -564.7312       1269.3845      3356.6716      17.576601    
  14120000   302.26925     -559.31741      1275.404       3419.1083      4.3229204    
  14125000   298.89304     -613.40033      1237.6693      3297.099       2.8278201    
  14130000   298.90211     -579.60609      1302.0136      3395.3187      7.4289896    
  14135000   304.02367     -561.48327      1296.2552      3453.4824     -3.0033468    
  14140000   301.1273      -562.93644      1238.4866      3368.36        15.407066    
  14145000   305.87338     -568.62919      1283.8918      3450.514       4.5811536    
  14150000   299.97156     -589.55965      1302.2144      3395.1294      12.604552    
  14155000   299.7514      -580.21063      1275.9986      3376.294       14.896461    
  14160000   294.01247     -603.04776      1233.613       3259.7513     -0.99680165   
  14165000   301.96037     -639.43994      1265.7417      3326.5613      14.812244    
  14170000   306.27364     -614.65506      1291.2647      3415.4402      6.9113991    
  14175000   297.76893     -605.39921      1306.2152      3363.5939      0.1802349    
  14180000   298.74266     -575.83623      1266.6808      3362.3299      13.890977    
  14185000   301.69928     -600.36782      1342.3117      3439.8687      6.9968828    
  14190000   297.88288     -629.85571      1296.3626      3330.3037      7.7127451    
  14195000   297.88866     -646.38515      1236.5583      3254.0217      9.6603412    
  14200000   306.4313      -629.30083      1286.0474      3396.987       15.082743    
  14205000   297.00073     -601.38861      1294.5723      3349.0919      5.1842632    
  14210000   300.27578     -594.27802      1284.7376      3375.6548      3.6887503    
  14215000   302.01629     -613.3121       1249.762       3337.2095      6.9798545    
  14220000   295.89465     -587.72952      1224.7361      3283.0237     -1.192944     
  14225000   296.04804     -614.76246      1319.143       3351.7695      13.230668    
  14230000   305.08021     -614.38559      1211.6163      3325.3892      9.0134992    
  14235000   303.88002     -616.04428      1321.0366      3422.4182      7.384853     
  14240000   293.71886     -576.86726      1234.907       3284.6002      18.876271    
  14245000   305.00726     -600.20578      1286.3269      3413.6272      3.7488678    
  14250000   308.90491     -556.02235      1280.0324      3486.3707      11.268028    
  14255000   296.57212     -563.80503      1292.4483      3380.7187      0.82851107   
  14260000   292.18847     -563.25359      1261.4278      3311.0492      18.567102    
  14265000   309.505       -579.22019      1282.0884      3470.5951      0.60766139   
  14270000   298.8767      -577.4906       1254.1144      3349.3078      8.3189297    
  14275000   293.46485     -556.85244      1281.3451      3348.7816     -4.3283781    
  14280000   300.95334     -556.38188      1329.6208      3464.4931      4.3761193    
  14285000   297.53194     -546.72215      1275.4293      3389.3657      1.6362475    
  14290000   296.03011     -566.94683      1290.9414      3371.2231     -0.16270156   
  14295000   302.71661     -546.31133      1283.4205      3444.1313      0.37375559   
  14300000   294.22926     -573.51072      1236.7954      3294.4093      7.8116591    
  14305000   305.19649     -568.35856      1337.7117      3498.5514      8.0745668    
  14310000   298.58306     -534.20343      1306.9225      3442.7773      7.5739163    
  14315000   298.39457     -533.31511      1301.3648      3436.4222      8.9625526    
  14320000   303.66959     -573.05983      1250.0571      3392.5414      13.646971    
  14325000   302.94764     -559.17671      1287.9706      3437.882       5.5212481    
  14330000   296.00478     -539.49852      1258.4292      3365.9327      7.8982057    
  14335000   303.5474      -566.16401      1246.0769      3394.3642      11.714719    
  14340000   302.82698     -577.14974      1290.3453      3421.2046      10.899481    
  14345000   302.67882     -553.62337      1239.2295      3392.2903     -7.8250055    
  14350000   303.44598     -555.51575      1300.6244      3458.6531     -0.31845663   
  14355000   298.0832      -540.52561      1307.3402      3432.4027      9.8483022    
  14360000   291.40833     -527.38414      1244.2567      3322.7713      7.3431102    
  14365000   307.32287     -510.29941      1239.6229      3477.5368      18.155471    
  14370000   299.50064     -530.24908      1263.9016      3411.9161      6.9288844    
  14375000   297.80851     -543.38031      1264.9317      3384.6832      13.974825    
  14380000   295.52036     -566.40409      1265.7479      3342.014       3.9077016    
  14385000   307.22459     -574.94624      1261.8698      3434.258       0.26110385   
  14390000   294.05803     -558.33555      1284.0553      3355.3131      7.7323353    
  14395000   300.83899     -577.4907       1259.7205      3372.4615      13.699138    
  14400000   295.73801     -556.29469      1274.1171      3362.4389     -2.8060835    
  14405000   302.58189     -576.08307      1288.1394      3417.8738      2.7103301    
  14410000   299.11916     -565.66484      1225.9346      3335.122      -3.0502159    
  14415000   297.71805     -555.64274      1245.6325      3352.3126      11.761091    
  14420000   295.16835     -593.25976      1244.8857      3291.1483      4.3386092    
  14425000   301.08302     -602.08111      1284.6943      3375.027       6.0364895    
  14430000   295.75127     -600.75372      1269.1793      3313.1607      2.6508414    
  14435000   302.84036     -574.97794      1299.5678      3432.7186      14.096781    
  14440000   301.94284     -566.68764      1251.7499      3385.165       1.4272518    
  14445000   297.53653     -596.21298      1266.0224      3330.509       7.3530353    
  14450000   298.96373     -570.12278      1257.0725      3360.412       5.5233524    
  14455000   300.2993      -544.67445      1265.7969      3406.528       17.820787    
  14460000   294.69382     -548.45016      1261.7629      3348.5917      9.2287145    
  14465000   301.17389     -580.16411      1243.8108      3356.8732      9.1369084    
  14470000   295.93133     -592.66378      1279.7608      3333.4423      8.6663056    
  14475000   296.27557     -567.19589      1261.114       3343.3417     -2.4843351    
  14480000   303.19915     -539.74121      1312.09        3483.686      -1.5206773    
  14485000   299.71727     -556.43678      1321.58        3445.344       2.2118172    
  14490000   296.5153      -577.56388      1262.6317      3336.6352      1.587581     
  14495000   308.60797     -586.81398      1284.5757      3457.4669      13.217905    
  14500000   302.46818     -575.26649      1236.1189      3365.653       20.08795     
  14505000   295.72787     -542.0848       1235.2433      3337.6843      5.7589412    
  14510000   299.18524     -549.87938      1336.6356      3462.1994      5.9032564    
  14515000   297.45883     -541.33485      1233.4837      3352.1537      7.0317883    
  14520000   297.59098     -560.06984      1292.9926      3394.1094      6.7819542    
  14525000   301.85313     -531.71364      1257.5561      3425.1429      7.072848     
  14530000   298.61168     -515.71948      1248.7031      3403.2977      2.1779212    
  14535000   296.64425     -504.80573      1304.6398      3452.5546      0.20503553   
  14540000   304.49714     -517.51611      1269.0669      3474.4952     -0.41922896   
  14545000   308.07424     -544.67618      1295.5875      3505.8438      4.8312172    
  14550000   300.71327     -563.54635      1275.0737      3400.6348      15.074562    
  14555000   299.15421     -567.07981      1293.0774      3401.1632     -2.2662324    
  14560000   294.81668     -566.96301      1298.3631      3367.7777      22.86563     
  14565000   293.10058     -551.05244      1241.3416      3311.3206      0.31271295   
  14570000   302.84345     -527.05259      1315.3798      3496.4836      2.1445604    
  14575000   306.26842     -532.82253      1298.4594      3504.4208      12.180408    
  14580000   304.78934     -532.42925      1287.9234      3481.0515      0.64665267   
  14585000   300.35163     -538.67178      1284.1508      3431.3524     -1.6028787    
  14590000   309.97502     -542.02099      1255.9591      3485.8681     -0.058611119  
  14595000   295.37549     -545.43961      1245.1782      3341.1133     -4.7222482    
  14600000   300.68155     -614.14487      1298.2176      3372.8965      19.786202    
  14605000   299.56359     -566.79348      1288.9398      3400.9728     -2.2893407    
  14610000   295.39379     -566.97663      1260.9987      3335.5605     -3.5729747    
  14615000   298.50953     -561.79037      1281.2037      3388.814       7.9990547    
  14620000   294.73225     -600.53234      1270.9594      3306.0496      9.6554025    
  14625000   299.28868     -531.5086       1308.2923      3453.1518      1.5616664    
  14630000   297.03461     -569.60902      1277.9548      3364.557       8.9865026    
  14635000   308.07613     -564.23988      1297.7893      3488.4986      4.840273     
  14640000   295.11562     -574.0157       1283.4972      3348.5324      15.982761    
  14645000   300.67995     -565.61308      1316.2805      3439.4768      2.9760473    
  14650000   299.40625     -563.82239      1290.6344      3404.2315      6.5591549    
  14655000   298.28466     -582.35408      1283.3195      3368.3551      2.4914101    
  14660000   294.16072     -573.0365       1333.0005      3390.4757      10.342776    
  14665000   299.30273     -574.87615      1283.8053      3385.423       8.2563594    
  14670000   303.45118     -552.56753      1322.9379      3483.9614      3.8435239    
  14675000   296.81537     -539.856        1256.1554      3370.5501      2.8144297    
  14680000   299.05086     -583.20147      1237.1759      3328.2159      10.01018     
  14685000   298.8053      -521.95543      1272.1693      3422.2594      7.442351     
  14690000   297.22889     -569.74534      1317.7149      3405.9181      10.471867    
  14695000   308.82124     -574.01709      1345.8424      3533.4377      6.5848269    
  14700000   304.82058     -566.39941      1236.0686      3395.5059      10.770105    
  14705000   298.3047      -576.13766      1274.7565      3366.1878      5.0361356    
  14710000   299.00632     -572.3546       1277.3114      3378.7999      23.327292    
  14715000   302.35656     -597.29355      1326.482       3432.9909     -2.1080741    
  14720000   303.58839     -616.33594      1243.6619      3342.144       14.580004    
  14725000   297.17588     -595.37855      1260.298       3322.394       2.4000391    
  14730000   302.9095      -580.37438      1313.2662      3441.6388      13.706839    
  14735000   298.71654     -594.38362      1233.9965      3310.8647      3.4087083    
  14740000   311.24839     -588.5182       1223.0406      3417.8394      2.7134767    
  14745000   301.59693     -584.26816      1299.8843      3412.6257     -0.77828211   
  14750000   305.15768     -610.52369      1290.3569      3408.6844      5.5239055    
  14755000   311.89318     -574.62389      1275.2468      3489.7059      15.804095    
  14760000   299.38133     -536.71904      1268.4755      3408.9531      7.2405025    
  14765000   298.4891      -570.9482       1295.979       3394.2487     -0.37166322   
  14770000   296.29386     -601.53395      1286.1183      3334.1716      11.304186    
  14775000   302.92338     -565.83324      1255.1411      3398.179      -1.5606978    
  14780000   297.79359     -579.88968      1236.7497      3319.8584      13.410986    
  14785000   303.85393     -571.26217      1287.0086      3432.9389      17.189986    
  14790000   300.83604     -598.06376      1292.8854      3385.0269      5.2561056    
  14795000   294.80978     -569.83996      1286.3421      3352.818      -3.4372732    
  14800000   298.28483     -585.0029       1259.4629      3341.8512      7.745862     
  14805000   290.75511     -576.52146      1300.6657      3324.2016      8.6264888    
  14810000   293.27297     -596.9035       1280.0737      3305.7432      4.4400901    
  14815000   300.3412      -582.75847      1236.2188      3339.2406      13.951595    
  14820000   289.03257     -598.79285      1321.2394      3307.1002     -0.09839974   
  14825000   301.63255     -560.84547      1254.9267      3391.4093      0.77797      
  14830000   300.0781      -538.65312      1286.5565      3431.3308      5.5453966    
  14835000   299.06305     -562.09125      1299.61        3411.8692      0.73619358   
  14840000   292.95375     -578.09774      1245.8426      3287.4633      14.543484    
  14845000   302.26771     -612.41534      1310.3237      3400.9163      2.3358162    
  14850000   309.72267     -606.88996      1307.8049      3470.5883      6.1016165    
  14855000   290.4929      -570.58141      1270.2256      3297.3567      8.2345931    
  14860000   288.2728      -611.71579      1317.7987      3283.9423      7.174386     
  14865000   305.80432     -620.14288      1275.468       3389.9589      14.255797    
  14870000   303.83652     -589.25665      1280.1759      3407.9561     -0.43424029   
  14875000   297.99207     -600.64873      1253.744       3317.8685      7.2964495    
  14880000   303.98536     -571.16687      1306.1319      3453.3329      4.5745867    
  14885000   298.72222     -547.1554       1288.8691      3413.0162      3.0036532    
  14890000   304.058       -531.52146      1293.9565      3481.4525      6.8092881    
  14895000   302.1731      -525.37166      1285.8424      3462.6326      2.136882     
  14900000   300.90887     -554.89349      1229.1822      3365.1453      9.3881655    
  14905000   303.35138     -591.75057      1269.3033      3390.2513      2.1835521    
  14910000   303.14469     -604.27088      1303.015       3409.5943      5.1356453    
  14915000   297.97923     -624.39349      1286.4821      3326.747       6.0693104    
  14920000   296.53923     -581.10629      1320.651       3391.326       6.6337044    
  14925000   298.16704     -588.62232      1279.521       3357.2366      11.941754    
  14930000   289.69307     -595.92574      1321.9083      3316.5427     -2.5917608    
  14935000   304.30223     -578.3534       1246.1266      3388.9746      9.1473126    
  14940000   303.36771     -568.33173      1273.1147      3417.6275      13.522754    
  14945000   297.90261     -584.45852      1271.9033      3351.418      -0.9989078    
  14950000   299.42031     -589.82031      1228.3363      3316.0612      8.2477272    
  14955000   300.48722     -589.77785      1280.1728      3377.4809      6.5461004    
  14960000   299.07756     -595.65022      1259.0799      3337.9099      12.3697      
  14965000   296.63091     -605.08995      1310.5628      3358.0741     -1.2345969    
  14970000   303.72957     -606.9431       1283.4862      3392.6235      12.191211    
  14975000   303.0401      -598.62621      1250.2411      3361.5298      5.441785     
  14980000   299.81695     -583.35914      1261.59        3359.323       5.6978737    
  14985000   299.44666     -537.2519       1258.3374      3398.8663      4.9877671    
  14990000   304.21169     -529.4232       1322.9329      3513.9015      4.2804284    
  14995000   297.79043     -551.97691      1252.1005      3363.0938      4.7217006    
  15000000   297.53047     -582.17842      1213.9124      3292.3794      0.92359392   
  15005000   306.41344     -543.15464      1239.253       3436.1792     -5.2009903    
  15010000   303.02876     -551.87455      1215.9103      3373.8493      10.445001    
  15015000   307.95153     -588.18007      1244.8171      3410.4721      11.673754    
  15020000   304.97947     -576.81741      1225.5769      3376.0171      11.579603    
  15025000   305.69382     -591.20822      1301.0602      3443.4976      11.051266    
  15030000   311.99565     -568.61308      1316.7128      3538.0991      12.635889    
  15035000   304.31385     -590.81692      1298.0158      3428.5042      15.106722    
  15040000   297.81605     -589.78867      1263.2382      3336.6487      8.8411253    
  15045000   300.34066     -578.25739      1307.0747      3414.5928      1.8610395    
  15050000   308.25805     -605.93017      1276.3066      3426.9525      12.787181    
  15055000   288.42783     -602.11022      1268.1338      3245.2694      12.312906    
  15060000   302.22011     -606.20862      1197.1532      3293.5269     -2.3571075    
  15065000   293.80495     -604.7717       1312.5762      3335.1348      10.208243    
  15070000   300.60092     -591.80805      1288.1118      3384.4065      10.173058    
  15075000   301.61111     -550.14024      1315.8518      3462.8479      4.9088066    
  15080000   294.95859     -548.32692      1287.898       3377.2176      9.1902938    
  15085000   297.33059     -578.09889      1273.5877      3354.3468      5.8123738    
  15090000   310.06586     -541.92844      1309.9175      3540.7314      3.0860199    
  15095000   298.83123     -549.14875      1293.0658      3416.1944      2.3658171    
  15100000   302.27372     -532.7028       1316.9641      3487.3228      10.102102    
  15105000   299.22985     -574.93419      1293.74        3394.6478      7.6316047    
  15110000   296.8733      -560.8841       1265.479       3359.3637      12.578195    
  15115000   304.89871     -555.71371      1254.3931      3425.2149      4.8146905    
  15120000   295.61286     -560.2223       1286.2644      3369.5394      0.30146365   
  15125000   298.73642     -555.97259      1280.0432      3395.5002      0.74829659   
  15130000   288.06539     -554.87251      1265.1014      3286.2335      14.327713    
  15135000   303.9419      -571.32778      1238.7359      3385.3874      8.5064437    
  15140000   293.28068     -594.35799      1281.8038      3310.0878      6.1763401    
  15145000   292.79474     -562.86886      1294.1056      3349.5332      6.3370166    
  15150000   297.4667      -598.40517      1238.5153      3300.1853      6.3939953    
  15155000   300.93134     -543.0012       1304.7765      3452.8327      2.8511129    
  15160000   301.97639     -547.04385      1239.5114      3392.8703      6.609221     
  15165000   290.69323     -576.70692      1292.6322      3315.4291      5.3811914    
  15170000   296.30552     -594.52056      1249.3997      3304.5705      3.6625277    
  15175000   289.83468     -566.49914      1251.541       3276.8683     -1.3369975    
  15180000   298.63648     -595.54369      1268.6721      3343.6643      15.501114    
  15185000   300.58444     -588.32561      1273.6263      3373.2561      2.0763224    
  15190000   311.02536     -581.49035      1283.4569      3483.289       10.999362    
  15195000   301.21979     -586.54439      1260.1362      3367.2288      6.7365596    
  15200000   310.83469     -580.02881      1310.7033      3510.292       10.011449    
  15205000   298.38827     -571.15902      1311.9745      3409.1317      3.5212444    
  15210000   294.44475     -580.55537      1311.1672      3363.6635      7.1591273    
  15215000   298.80352     -569.72475      1283.6817      3385.9866      0.7507412    
  15220000   297.90784     -560.66096      1296.18        3399.5391     -1.7185342    
  15225000   296.09714     -525.90695      1292.8985      3414.8195      5.7947356    
  15230000   303.04044     -506.04392      1278.7464      3482.6204      9.8530316    
  15235000   296.53576     -544.06631      1240.6274      3348.3114      0.27194211   
  15240000   304.03023     -584.41583      1325.924       3460.2773      2.158203     
  15245000   300.79447     -577.21921      1290.5812      3403.1955      5.5809014    
  15250000   295.05108     -593.60727      1309.964       3354.8304     -7.7577647    
  15255000   298.91456     -568.77764      1300.9112      3405.1561     -3.1648781    
  15260000   301.56311     -561.62742      1251.2069      3386.2865      4.954431     
  15265000   293.40418     -576.21129      1310.6947      3358.2298     -3.1221       
  15270000   305.32208     -554.68679      1295.0321      3470.6667     -2.7422253    
  15275000   301.73046     -589.27152      1318.7323      3427.6643      0.1499796    
  15280000   297.62109     -576.22863      1289.6263      3374.8535      5.7390326    
  15285000   295.87533     -600.92314      1291.492       3336.4133      18.066424    
  15290000   300.9475      -596.1318       1264.0399      3359.1101      4.9763844    
  15295000   297.19211     -552.00357      1302.3076      3407.9237     -1.2759465    
  15300000   296.23857     -574.92071      1283.7318      3357.9039      7.9620086    
  15305000   286.51597     -611.80464      1300.3883      3250.7328     -5.3751539    
  15310000   295.17513     -606.52074      1273.5378      3306.6001      8.7668798    
  15315000   297.84305     -615.42611      1220.9232      3268.9377      18.801659    
  15320000   293.81113     -598.2965       1331.0831      3360.1721      5.0128894    
  15325000   294.1181      -596.25975      1278.3932      3312.264       11.985926    
  15330000   300.83625     -611.03594      1207.9129      3287.0841      6.9713607    
  15335000   300.00583     -567.47912      1317.4896      3432.7917     -3.3429307    
  15340000   304.33014     -570.41961      1267.7142      3418.7457      14.053695    
  15345000   304.50534     -566.491        1314.4589      3470.9855     -0.053973117  
  15350000   297.91744     -613.04631      1319.7768      3370.8365      13.100315    
  15355000   294.08662     -610.48408      1315.6734      3335.0383      1.637584     
  15360000   299.67823     -616.25307      1293.8401      3357.4387      0.62499784   
  15365000   294.80861     -587.76814      1288.7541      3337.2914      10.282322    
  15370000   302.55793     -561.4637       1241.3557      3385.4951      8.949635     
  15375000   306.21267     -536.84902      1302.2858      3503.7222      5.5036601    
  15380000   300.62677     -561.43967      1247.6696      3374.5639      6.4644333    
  15385000   294.93138     -544.97799      1274.9148      3367.3401      5.3516729    
  15390000   309.50923     -515.9457       1313.8765      3565.6954      12.800119    
  15395000   298.63261     -494.77368      1258.6267      3434.3543      3.4319459    
  15400000   302.58181     -535.2033       1284.5551      3455.1685      6.2445379    
  15405000   300.96072     -546.65627      1303.5405      3448.2044      21.67059     
  15410000   300.79016     -557.27848      1287.7878      3420.3043      4.3149463    
  15415000   296.16163     -546.30166      1278.3179      3380.4209      13.381033    
  15420000   298.8993      -557.76116      1250.7884      3365.9133      15.269976    
  15425000   300.02739     -571.64055      1270.6088      3381.9422      16.449683    
  15430000   293.35816     -582.51817      1260.0598      3300.8764      3.3960746    
  15435000   297.66603     -543.94835      1262.2985      3380.2079      10.850865    
  15440000   299.09881     -574.49903      1251.6132      3351.7844      12.185756    
  15445000   296.96113     -587.20492      1305.77        3374.1193      1.2216181    
  15450000   293.307       -590.79125      1289.8572      3321.9433      0.9545849    
  15455000   299.12034     -545.92391      1285.2759      3414.2147      17.646427    
  15460000   291.87683     -576.05643      1263.2261      3297.2579     -3.3390658    
  15465000   301.74515     -557.02721      1283.6355      3424.9432      10.793638    
  15470000   296.6141      -565.42524      1296.6804      3383.706       8.7920576    
  15475000   296.931       -555.3148       1251.0587      3351.0286      11.626529    
  15480000   296.92767     -590.79626      1250.7948      3315.2535      8.9157349    
  15485000   300.13585     -576.97106      1259.8662      3366.839      -2.1869166    
  15490000   293.41379     -558.2569       1300.8187      3366.3941      8.533855     
  15495000   295.78772     -573.91948      1344.6034      3415.745       1.3976803    
  15500000   303.22492     -614.75841      1317.0923      3413.9016      3.9808909    
  15505000   303.10085     -599.02233      1212.2994      3323.7353      4.9663138    
  15510000   299.55082     -610.11874      1273.9888      3342.5824      11.570421    
  15515000   303.27749     -616.89192      1264.4159      3359.5618      3.0826177    
  15520000   303.49016     -590.04024      1312.4138      3436.3131      5.2452762    
  15525000   310.86861     -606.86822      1280.0311      3453.0837      11.217221    
  15530000   296.60116     -617.1084       1241.6336      3276.8603      5.9216363    
  15535000   297.99746     -623.94576      1287.8631      3328.7388      7.1339601    
  15540000   306.01817     -633.77039      1230.8498      3333.6255      20.849389    
  15545000   296.61955     -616.27957      1274.1881      3310.4081      14.986714    
  15550000   308.09926     -557.13776      1289.5364      3487.5547      11.04855     
  15555000   297.43168     -574.11948      1278.4971      3364.1397     -5.0789955    
  15560000   303.02935     -565.63494      1282.1204      3426.3042      4.0794119    
  15565000   312.66075     -554.5606       1262.0241      3503.4104      15.613222    
  15570000   297.82053     -591.22718      1296.1014      3368.1135      5.6526618    
  15575000   300.67885     -582.26199      1308.8992      3415.4368      7.5329491    
  15580000   298.06207     -577.99828      1271.1931      3358.594       8.0766966    
  15585000   289.75045     -601.45077      1257.0592      3246.6816     -3.8663038    
  15590000   300.54293     -591.64842      1309.1254      3405.0611      5.5696595    
  15595000   296.28993     -567.70472      1243.3166      3325.1639      7.3243642    
  15600000   302.27236     -581.70643      1243.9167      3365.2597      2.4160137    
  15605000   301.81612     -570.66965      1296.0041      3424.304       16.876555    
  15610000   298.91804     -576.6883       1224.9973      3321.3627      15.104005    
  15615000   288.65826     -591.49132      1287.7047      3277.5198      8.6743453    
  15620000   300.40499     -609.10132      1277.5567      3354.806       11.036972    
  15625000   294.71961     -590.9645       1290.0563      3334.6014      10.524286    
  15630000   302.26636     -617.38005      1287.6848      3373.3006      12.04949     
  15635000   297.08943     -580.19392      1275.3706      3351.8782      12.761203    
  15640000   296.00525     -561.63958      1257.8093      3343.176       13.995239    
  15645000   305.7155      -578.15185      1305.7341      3461.4218      8.8323359    
  15650000   306.19618     -558.52276      1256.346       3435.9612      2.7594292    
  15655000   299.00285     -536.45838      1246.9027      3384.2565      3.7656717    
  15660000   305.49748     -537.77132      1272.9553      3467.0738      8.7194637    
  15665000   298.72016     -593.19149      1306.7447      3384.8374      6.7564232    
  15670000   288.72945     -615.8665       1275.7632      3241.8397      26.004213    
  15675000   298.60416     -605.98889      1271.166       3335.424       25.876308    
  15680000   297.31632     -550.56596      1269.3385      3377.503       13.416901    
  15685000   295.52074     -547.03915      1289.9854      3385.6198     -11.0522      
  15690000   309.12866     -551.28718      1283.5881      3496.6623      9.249273     
  15695000   301.22808     -540.8638       1281.4736      3434.3209      16.944196    
  15700000   299.37942     -598.39263      1284.3319      3363.1188      13.038377    
  15705000   297.87163     -567.95641      1271.7595      3367.4994      12.122129    
  15710000   301.6429      -584.20033      1245.4132      3358.6335      2.3364795    
  15715000   297.46587     -594.09003      1286.3854      3352.3631      27.583881    
  15720000   305.69038     -620.66022      1264.1959      3377.1506      12.39491     
  15725000   290.49164     -620.96188      1314.4495      3291.1889      6.8956937    
  15730000   299.79812     -601.83566      1297.7538      3376.8419      12.41446     
  15735000   302.30205     -593.88511      1292.6442      3402.074      -1.0575861    
  15740000   307.64954     -583.59325      1277.1046      3444.6459      1.7215999    
  15745000   301.91555     -577.42242      1266.9435      3389.3798      9.2288781    
  15750000   297.76147     -586.36515      1308.8662      3385.2122     -4.2910017    
  15755000   298.92531     -607.63819      1250.8044      3316.2849      14.801118    
  15760000   302.9381      -605.27313      1285.5783      3389.3079      8.9133915    
  15765000   297.96793     -585.4578       1309.463       3388.5626      2.0569612    
  15770000   300.62331     -554.80014      1245.6825      3379.1853      6.6435054    
  15775000   301.82178     -583.91839      1258.9324      3374.0342      6.21077      
  15780000   304.60804     -548.7799       1251.5248      3426.681      -2.0250527    
  15785000   295.24832     -535.31582      1247.8461      3352.7678      6.0574       
  15790000   299.35761     -555.55623      1267.7278      3389.1561      13.292328    
  15795000   290.64056     -563.32524      1301.655       3337.3626      2.7894107    
  15800000   304.38443     -561.28967      1293.0334      3453.6802      17.909134    
  15805000   293.28055     -602.84569      1283.6536      3303.4487      7.0005379    
  15810000   295.12064     -584.30195      1238.7771      3293.5708      7.2483775    
  15815000   306.33792     -599.11843      1241.1513      3381.4383      21.115748    
  15820000   300.75928     -583.87417      1294.0883      3399.7329     -3.5013218    
  15825000   293.54168     -584.43218      1298.388       3338.9318     -7.6341031    
  15830000   294.37955     -599.03817      1279.2947      3312.7251      15.927554    
  15835000   295.5295      -595.30927      1317.8505      3365.2931      5.4709312    
  15840000   301.77732     -556.62376      1292.7592      3434.7581      4.5285492    
  15845000   299.74649     -557.49214      1264.9573      3387.9272      6.1750334    
  15850000   300.42426     -573.18814      1241.257       3354.5918      22.01576     
  15855000   307.5025      -535.96406      1270.3885      3484.244       4.5441511    
  15860000   298.57002     -547.78986      1295.5036      3417.6553      8.5661266    
  15865000   299.79279     -534.96075      1270.619       3416.5343      14.803158    
  15870000   304.61853     -563.91187      1254.0958      3414.2139      6.0922119    
  15875000   296.4451      -592.16231      1287.9507      3346.728       2.5303017    
  15880000   298.09587     -566.34189      1232.5582      3331.9178      3.9048623    
  15885000   294.47316     -561.35499      1282.4038      3354.3544      8.7983373    
  15890000   307.9079      -562.73451      1313.2485      3503.9589     -2.0216464    
  15895000   299.30532     -556.52589      1273.484       3393.475       5.1885526    
  15900000   303.20712     -575.94496      1238.2843      3373.7478      17.341248    
  15905000   295.94519     -607.88346      1262.5402      3301.1259      7.5582987    
  15910000   305.10169     -584.3128       1271.3017      3415.3394      5.6765441    
  15915000   298.08028     -594.06807      1281.3559      3352.8499      0.400749     
  15920000   297.31782     -564.07312      1250.8258      3345.4965      2.8698539    
  15925000   300.46909     -603.42717      1258.6314      3342.1281      15.904982    
  15930000   292.20659     -574.17379      1311.874       3350.7372      13.999616    
  15935000   303.41151     -563.33774      1279.4467      3429.3452      5.0494418    
  15940000   294.91341     -562.10764      1250.3498      3325.4847      7.4983977    
  15945000   304.03292     -559.80825      1254.8131      3413.7981      9.1748935    
  15950000   297.06094     -531.98854      1205.9534      3330.4116      1.6435906    
  15955000   301.04145     -551.37128      1291.9063      3432.5772      9.3194162    
  15960000   303.99821     -577.42216      1286.4364      3427.497       14.814559    
  15965000   305.51687     -594.70214      1225.7559      3363.117       15.951817    
  15970000   299.02747     -594.11751      1240.9871      3320.9019      7.0020443    
  15975000   297.60076     -629.88545      1323.4999      3354.8885      2.1379899    
  15980000   303.49212     -619.15783      1293.0844      3387.8837     -7.476101     
  15985000   298.55855     -610.45771      1231.9648      3291.3461      5.4252947    
  15990000   298.29343     -587.45498      1260.768       3340.7811      3.293593     
  15995000   293.14626     -631.17573      1300.191       3290.4552      4.2042759    
  16000000   294.67557     -614.78435      1289.5255      3309.8569     -0.38231469   
  16005000   296.89624     -612.8641       1296.4726      3338.5823     -2.9328366    
  16010000   304.82017     -588.42292      1283.9497      3421.3599      13.861439    
  16015000   292.81193     -557.54432      1236.3701      3297.276       4.2877247    
  16020000   301.04348     -555.15438      1291.9503      3428.8563      1.2731421    
  16025000   299.59464     -599.89133      1292.8579      3372.0707      4.1173977    
  16030000   288.20292     -599.1259       1284.9641      3263.0726     -0.48156503   
  16035000   297.93064     -590.65818      1341.5632      3415.1289      3.8619104    
  16040000   304.74925     -581.50087      1258.6093      3402.3074     -1.5475307    
  16045000   294.13301     -597.5684       1290.6226      3323.3181     -5.5669461    
  16050000   303.11199     -575.19153      1274.9587      3410.325       15.252601    
  16055000   305.75146     -610.54403      1318.1856      3441.8027     -2.153151     
  16060000   306.1244      -576.79503      1290.2508      3450.9518     -2.210107     
  16065000   291.94363     -590.75969      1284.512       3304.4379     -2.4861975    
  16070000   298.47276     -600.03838      1241.1841      3310.2175      1.0713878    
  16075000   295.93235     -562.82999      1300.9316      3384.456       16.922731    
  16080000   294.44191     -574.9683       1289.0941      3347.1521     -1.0328799    
  16085000   300.84068     -561.65831      1305.5499      3434.1384      4.7189901    
  16090000   303.87202     -571.06477      1276.7479      3423.0374      13.330197    
  16095000   305.41787     -563.12213      1278.9365      3446.9924      16.866516    
  16100000   296.8591      -586.98101      1236.2912      3303.9519      14.590573    
  16105000   303.09636     -572.57232      1320.3692      3458.2149      13.486443    
  16110000   298.65916     -573.22627      1286.4071      3383.9195      4.3316817    
  16115000   292.42313     -574.45504      1256.982       3297.5004      11.847477    
  16120000   298.51835     -567.47123      1268.158       3370.1662      6.0645121    
  16125000   294.4235      -589.32621      1296.868       3340.4034      8.2271918    
  16130000   297.86623     -560.99099      1231.3453      3334.0022      5.2826532    
  16135000   296.3604      -602.27385      1238.6917      3286.6         2.4711954    
  16140000   297.82228     -624.6675       1269.0463      3307.6337      1.8530552    
  16145000   303.62615     -608.1659       1287.6434      3394.6331      0.43216696   
  16150000   292.03354     -594.91298      1238.869       3255.4456      0.88200472   
  16155000   301.01595     -606.66501      1289.2604      3374.4094      5.0725453    
  16160000   296.097       -566.52795      1346.1453      3427.4441      0.27601222   
  16165000   303.86321     -560.82907      1316.7701      3473.2165      10.388233    
  16170000   300.31248     -547.64976      1304.5517      3442.4254      6.2759724    
  16175000   301.68113     -520.88564      1283.6389      3460.5157      10.099668    
  16180000   299.34631     -546.66078      1250.1269      3380.3496      8.3462808    
  16185000   294.94897     -550.80169      1237.7857      3324.5445      15.217097    
  16190000   294.04095     -539.72377      1269.3327      3359.0496      5.9666691    
  16195000   300.19026     -579.75729      1255.1753      3359.8485      3.898658     
  16200000   290.74706     -551.95569      1284.9596      3332.9893      7.4038979    
  16205000   298.15029     -528.9343       1274.4597      3411.7135     -1.6481033    
  16210000   301.81549     -520.11677      1242.5074      3421.3545      8.0691394    
  16215000   302.95376     -542.12769      1284.5138      3451.5289      3.9732941    
  16220000   292.92219     -527.23821      1247.7796      3339.9776      5.2910964    
  16225000   302.48111     -552.71004      1277.2317      3429.4378      2.2448059    
  16230000   289.06777     -578.49999      1275.9383      3282.4066     -2.1600394    
  16235000   298.50214     -551.48435      1242.3468      3360.197       0.82167967   
  16240000   298.43471     -546.13265      1315.3635      3437.9624      4.9745321    
  16245000   297.18011     -554.92791      1229.4247      3332.0092      1.8609838    
  16250000   297.35        -600.56823      1316.6847      3375.1481      2.7087541    
  16255000   295.40241     -565.09844      1256.1491      3332.6662      5.8227406    
  16260000   301.2588      -556.81343      1298.1313      3435.3037      2.7538843    
  16265000   298.05569     -541.08132      1298.3948      3422.6557      6.2652008    
  16270000   303.85406     -506.83006      1262.2018      3472.5654      5.7900281    
  16275000   303.30835     -521.33099      1291.6093      3482.592       3.3791454    
  16280000   296.25667     -561.67856      1323.9789      3411.5549      6.7096958    
  16285000   296.96417     -569.88004      1309.372       3395.0733     -1.2581056    
  16290000   299.0038      -594.65255      1288.645       3367.8131      21.955655    
  16295000   302.46252     -563.79568      1322.2586      3463.2128      5.0287061    
  16300000   297.69153     -600.3465       1270.1421      3331.8813     -0.54036707   
  16305000   299.00677     -607.28298      1283.4352      3349.9994      4.8657376    
  16310000   298.73257     -591.35251      1285.314       3365.3566      2.861036     
  16315000   305.03414     -579.84876      1245.4006      3393.2984     -1.7148215    
  16320000   293.71869     -587.86065      1251.1519      3289.8501      6.9305976    
  16325000   299.72488     -571.25032      1298.1064      3407.1249      7.1774679    
  16330000   309.19733     -606.8264       1212.4439      3370.593       8.2943427    
  16335000   292.18591     -571.78679      1318.3287      3359.3941      1.636752     
  16340000   293.97247     -616.91054      1278.3494      3290.2672      20.127235    
  16345000   288.98305     -571.85734      1240.8797      3253.2331      9.3228886    
  16350000   293.70583     -598.0936       1235.5998      3263.95        11.726233    
  16355000   305.47663     -577.56771      1210.2972      3364.4329      7.0126854    
  16360000   302.05365     -573.81046      1301.6617      3428.9449      14.394775    
  16365000   304.49729     -550.19149      1264.755       3437.5093      11.608389    
  16370000   302.39989     -569.56859      1248.4602      3383.0815     -2.4532473    
  16375000   296.19845     -574.25846      1249.9306      3324.4061      8.5968684    
  16380000   301.80113     -564.68203      1268.4844      3402.6379      5.9589854    
  16385000   299.53088     -566.70297      1271.9339      3383.7649      1.1381276    
  16390000   297.62987     -562.3798       1328.3311      3427.4857      1.5592132    
  16395000   301.34636     -559.47082      1276.6535      3411.9514      7.8562667    
  16400000   301.35187     -551.38534      1249.1647      3392.5974      19.015948    
  16405000   302.91289     -582.96234      1229.6846      3355.4996      11.132744    
  16410000   300.79885     -573.18458      1317.1274      3433.8156      9.7824883    
  16415000   305.33637     -565.72086      1319.0893      3483.8176      12.676996    
  16420000   286.80788     -586.37366      1269.7325      3248.1183      14.972798    
  16425000   294.7738      -551.10995      1291.3853      3376.2695      16.314299    
  16430000   301.66558     -576.29503      1252.5374      3373.8658      3.6223629    
  16435000   293.32933     -581.85021      1303.3501      3344.577       10.179185    
  16440000   300.31925     -600.45756      1265.3898      3350.5162      13.581977    
  16445000   296.71286     -568.37576      1267.3104      3352.2687      10.392526    
  16450000   299.1708      -597.74087      1263.8744      3341.4476      4.8836233    
  16455000   294.81251     -559.08814      1260.6374      3337.8895     -2.1039751    
  16460000   304.86204     -553.7469       1301.4294      3473.89        7.9624266    
  16465000   302.99683     -578.84483      1323.7329      3454.4161     -2.3989142    
  16470000   305.89238     -562.73141      1261.3092      3433.999      -4.3839729    
  16475000   299.65656     -549.52825      1231.8844      3362.014      -2.9602856    
  16480000   303.61778     -587.35146      1302.1964      3429.9257      2.71941      
  16485000   306.57994     -581.53888      1277.6923      3437.7231      7.8513134    
  16490000   297.05632     -582.4367       1286.4478      3360.4165      1.0382496    
  16495000   300.42521     -537.2467       1290.4452      3439.73        8.133549     
  16500000   303.50783     -530.17483      1300.028       3483.9508      8.310565     
  16505000   300.38365     -574.2406       1292.4418      3404.361       5.7088154    
  16510000   296.7749      -598.75209      1218.0808      3273.2175     -3.2540122    
  16515000   292.47899     -556.07322      1250.4425      3309.8422     -8.7320803    
  16520000   302.98011     -588.29616      1260.1718      3381.2541      9.1219493    
  16525000   295.92368     -564.39326      1253.665       3335.5486      5.8687874    
  16530000   293.00978     -549.30201      1308.4067      3379.3242      1.8360818    
  16535000   302.77511     -585.54104      1275.5517      3397.5559      2.1458336    
  16540000   302.26653     -598.25605      1286.1469      3390.8882      9.508361     
  16545000   296.00074     -554.52766      1254.2081      3346.6463      4.6671602    
  16550000   307.62706     -570.75549      1238.4261      3418.6042      8.8138662    
  16555000   294.52761     -586.76915      1280.9317      3327.9551      5.3305965    
  16560000   295.92403     -555.23888      1279.8984      3370.9395      12.792154    
  16565000   302.15509     -586.67155      1275.6203      3390.9496      1.9019307    
  16570000   302.52373     -586.66018      1231.4923      3350.1295      6.6315798    
  16575000   299.74355     -576.9212       1263.7514      3367.266       19.43445     
  16580000   305.24144     -604.38162      1286.4003      3411.619       3.4542891    
  16585000   298.97614     -573.61604      1284.7161      3384.6733      6.330367     
  16590000   286.5685      -586.95996      1265.2066      3240.8655      0.05500126   
  16595000   299.14975     -613.531        1298.1969      3359.7916      0.41544107   
  16600000   297.47749     -617.88027      1234.9077      3277.1991      5.4004103    
  16605000   294.64358     -603.45611      1225.4931      3256.8666     -7.4031814    
  16610000   302.75675     -580.66879      1283.9049      3410.6172      11.988875    
  16615000   288.6619      -547.00347      1288.9774      3323.3128     -4.7825848    
  16620000   296.60913     -565.05968      1270.4591      3357.8058      1.3835825    
  16625000   297.4838      -555.28417      1317.8252      3422.7691      6.0013591    
  16630000   303.8194      -538.02086      1292.2009      3471.0638      8.1298986    
  16635000   293.64772     -590.69836      1282.7134      3317.9393     -1.0243433    
  16640000   298.12229     -568.04156      1271.2835      3369.1796      10.049357    
  16645000   300.89569     -549.50098      1339.9973      3481.2351      6.1369067    
  16650000   297.74547     -564.85704      1290.9802      3388.6912      4.7403403    
  16655000   294.86367     -563.96721      1264.1673      3336.9978      7.8548324    
  16660000   294.96787     -561.40207      1286.4424      3362.7699      1.319835     
  16665000   296.73552     -571.26231      1286.5978      3368.8722     -0.9867578    
  16670000   307.71444     -580.94237      1268.8239      3439.5964      3.3513919    
  16675000   297.32963     -577.95444      1285.008       3365.903       5.4492273    
  16680000   293.34452     -573.1438       1275.0115      3325.0806      10.324931    
  16685000   298.36546     -577.65849      1246.4376      3336.8914      6.8144396    
  16690000   298.48586     -592.71256      1314.8041      3391.2805      1.9288374    
  16695000   300.78444     -551.28133      1305.6503      3444.1128      12.924111    
  16700000   292.93968     -540.14157      1245.0488      3324.4999      7.5187229    
  16705000   298.35303     -532.81124      1306.1243      3441.3142      1.6447538    
  16710000   299.67721     -548.20267      1317.7775      3449.4173      12.152384    
  16715000   298.35178     -553.9918       1293.3422      3407.3404      9.4552698    
  16720000   301.0218      -555.75388      1274.2861      3410.3986     -2.95275      
  16725000   300.81083     -547.09046      1256.4211      3399.3105      8.8415644    
  16730000   300.44285     -552.14616      1247.1995      3381.7425      11.94492     
  16735000   306.88137     -550.28015      1281.4596      3475.4446      3.2516499    
  16740000   297.55398     -543.61671      1261.9552      3379.1942      16.827477    
  16745000   300.08867     -565.66053      1254.726       3372.5875      12.155359    
  16750000   295.71203     -569.66875      1311.2794      3385.9948      3.9835756    
  16755000   300.67761     -589.77467      1303.4492      3402.463       8.8511483    
  16760000   302.3299      -560.46989      1238.9095      3382.0037      1.1864495    
  16765000   302.41954     -589.19605      1280.6769      3395.8465      7.2831408    
  16770000   290.15719     -577.6488       1269.8096      3286.8712      4.5429886    
  16775000   300.6974      -563.57051      1277.0665      3402.4615      6.4037092    
  16780000   295.75221     -598.1774       1304.2686      3350.8347      9.627857     
  16785000   308.23601     -612.11554      1327.45        3471.7135      16.151126    
  16790000   291.77521     -556.96399      1242.9228      3295.1382      10.752788    
  16795000   299.36564     -540.64154      1285.9605      3422.3753      6.3827144    
  16800000   302.89616     -568.15979      1330.8233      3471.2913      6.6974459    
  16805000   301.26925     -564.94937      1276.8027      3405.9325      11.284528    
  16810000   298.83986     -581.15188      1247.4633      3338.666       0.28692233   
  16815000   299.24967     -561.03706      1250.7218      3365.704       7.1042643    
  16820000   293.89497     -537.69041      1289.5127      3379.9575      2.3684804    
  16825000   302.31781     -563.34438      1274.6238      3414.7354      9.8053563    
  16830000   299.38494     -539.92518      1264.0761      3401.3799      8.7349568    
  16835000   296.1443      -562.61576      1277.847       3363.481       25.105577    
  16840000   303.14771     -547.38085      1275.2893      3438.7857     -2.6559163    
  16845000   298.14661     -553.52427      1267.5386      3380.1696      3.7876504    
  16850000   295.17346     -564.50767      1283.643       3358.7034      2.6423198    
  16855000   297.44157     -575.3175       1264.9371      3349.4701      2.4054314    
  16860000   301.57859     -544.80341      1273.9203      3425.9623      13.044091    
  16865000   298.07487     -577.12214      1256.0025      3344.3941      23.720707    
  16870000   303.90277     -590.25998      1300.9227      3428.292       5.5379707    
  16875000   305.43277     -541.65682      1289.5712      3479.2256      11.317398    
  16880000   298.49444     -577.98852      1263.9556      3355.2327      10.567368    
  16885000   299.51363     -545.91652      1282.117       3414.5802      5.7507507    
  16890000   295.15223     -591.19344      1286.9306      3335.1154      5.2035301    
  16895000   300.6014      -589.82445      1238.9438      3337.2263      11.673692    
  16900000   303.44906     -581.21596      1260.9331      3393.2891      16.056068    
  16905000   298.36651     -611.55355      1277.8667      3334.4348      15.764244    
  16910000   294.03998     -587.03759      1340.5723      3382.9667      12.434505    
  16915000   292.93182     -584.1783       1316.4475      3351.7915      2.0104108    
  16920000   295.0261      -560.89142      1314.2687      3391.6276      5.4074928    
  16925000   293.58286     -589.62979      1285.3723      3321.0867      12.337073    
  16930000   297.3669      -593.21489      1233.8964      3299.8643      12.800105    
  16935000   300.06384     -579.70781      1302.6639      3406.256       3.7052748    
  16940000   295.74952     -566.65116      1333.842       3411.9102      3.6582809    
  16945000   302.50155     -575.89061      1276.6664      3405.8748      11.896386    
  16950000   300.31624     -613.61355      1261.515       3333.4584     -2.1206079    
  16955000   299.81683     -604.95481      1247.9236      3324.0599      9.6301165    
  16960000   302.0234      -582.5435       1264.6435      3382.9231      5.2559484    
  16965000   295.0703      -616.07475      1317.2006      3339.7715     -3.9848998    
  16970000   294.09287     -599.01326      1269.5037      3300.3954      9.1833232    
  16975000   296.4783      -611.72759      1290.5066      3330.0155      3.762772     
  16980000   294.85229     -586.74714      1278.8102      3328.7591      15.133129    
  16985000   301.1748      -589.03626      1299.3458      3403.5441      6.7653035    
  16990000   295.68869     -579.52853      1278.732       3343.3789      7.2185123    
  16995000   295.79971     -600.01614      1286.0136      3331.1657      3.9278816    
  17000000   297.14053     -621.85401      1266.0639      3301.3683      8.9182374    
  17005000   303.10377     -618.96171      1278.9715      3370.4941      2.5308161    
  17010000   298.71016     -598.89512      1299.6845      3371.984       9.0688944    
  17015000   303.00822     -657.6781       1276.5338      3328.4855      1.3379333    
  17020000   297.93813     -609.46449      1240.5384      3295.3648      7.9616489    
  17025000   303.40364     -614.21261      1266.601       3365.5543      12.610843    
  17030000   305.40136     -618.52374      1308.463       3420.9696      14.349325    
  17035000   304.65441     -569.91892      1321.5477      3475.9796      7.1460371    
  17040000   300.7817      -561.11897      1284.6241      3413.2245      5.0429855    
  17045000   302.26128     -575.89445      1293.5703      3420.6263      13.384388    
  17050000   299.46017     -558.46727      1241.4856      3360.92        15.151991    
  17055000   304.16567     -587.91241      1282.9419      3415.0098      13.513262    
  17060000   297.47068     -581.25246      1323.4991      3402.3574      0.18553082   
  17065000   303.79318     -563.72543      1289.6037      3442.5275     -0.16838589   
  17070000   301.48727     -616.71054      1264.7283      3344.0466      12.392045    
  17075000   302.42363     -625.08445      1270.6376      3349.9553      17.097584    
  17080000   300.04222     -616.96582      1293.915       3360.0558     -2.8213128    
  17085000   301.5985      -604.79975      1310.3142      3402.538       20.459874    
  17090000   302.46347     -638.84657      1288.2438      3354.1557     -1.1798961    
  17095000   304.73286     -658.59657      1244.7374      3311.1931      12.641894    
  17100000   298.85694     -631.34739      1262.4831      3303.643       1.2841774    
  17105000   297.62288     -629.49576      1285.1143      3317.0903      16.297725    
  17110000   296.08878     -596.60369      1290.4616      3341.6112      14.447291    
  17115000   304.1283      -606.94091      1307.8291      3420.5343      3.792646     
  17120000   301.1585      -621.80844      1243.1632      3314.4437      9.9898022    
  17125000   291.2652      -628.20864      1255.7506      3232.1607     -2.4251075    
  17130000   303.43665     -646.14577      1347.0599      3414.3752     -12.576337    
  17135000   299.04101     -595.66608      1293.8816      3372.3689     -4.2216471    
  17140000   303.92902     -591.60965      1247.1747      3373.4291      5.9896514    
  17145000   303.31128     -606.60391      1210.2411      3315.9771      16.905501    
  17150000   300.06752     -584.54866      1296.4947      3395.2789      2.7944301    
  17155000   291.95956     -614.80432      1307.6251      3303.6487      3.8405998    
  17160000   293.31874     -591.53708      1274.8547      3306.3         0.34890177   
  17165000   299.5973      -584.82557      1276.6353      3370.9377      5.5424554    
  17170000   294.62597     -557.93212      1237.4021      3314.1421      12.189099    
  17175000   297.64593     -546.02689      1304.5379      3420.189       10.086227    
  17180000   298.12003     -531.78765      1295.8842      3430.0141      14.66572     
  17185000   297.876       -565.53001      1248.9286      3347.1339      1.4469369    
  17190000   297.38201     -574.35358      1266.814       3351.7783      15.287088    
  17195000   306.89567     -608.307        1219.14        3355.2262      9.5486947    
  17200000   298.34605     -617.82013      1271.8607      3321.9794      3.4464646    
  17205000   298.60187     -581.4745       1263.0059      3351.7577      10.16276     
  17210000   295.16632     -575.0935       1235.0618      3299.4726     -2.0553285    
  17215000   303.51665     -574.91137      1254.9036      3394.1687      3.7787965    
  17220000   299.50628     -592.91585      1271.793       3357.1912      17.679117    
  17225000   295.48982     -584.07837      1295.7905      3354.1092     -0.10114143   
  17230000   304.02468     -595.12105      1316.0511      3439.6495      9.5311382    
  17235000   293.52631     -588.03498      1288.4164      3325.2199      10.255121    
  17240000   295.42344     -599.34695      1289.2296      3331.6861      5.4406434    
  17245000   302.74758     -571.00394      1311.4056      3447.7008      10.65974     
  17250000   300.11186     -574.30833      1263.9735      3373.3945      4.8787047    
  17255000   297.96185     -555.71919      1314.9544      3423.7383      8.9266704    
  17260000   294.09765     -565.14064      1274.5457      3339.3528      4.7265682    
  17265000   304.16326     -557.76006      1315.4183      3477.617       11.23929     
  17270000   298.53459     -592.27454      1332.3173      3409.6674      3.2637805    
  17275000   288.88583     -567.91214      1286.3255      3301.7548      0.69253999   
  17280000   296.73024     -537.98575      1248.8447      3364.3484      13.176229    
  17285000   298.8         -565.10308      1298.0462      3404.9413      4.4842981    
  17290000   299.24916     -536.43293      1292.062       3431.6438      6.4766895    
  17295000   299.35073     -529.36278      1275.5854      3423.1457      18.76031     
  17300000   296.02406     -562.54359      1289.9384      3374.5693      13.402728    
  17305000   303.00973     -575.48078      1254.1679      3388.3304      10.226214    
  17310000   297.91446     -548.78309      1291.7945      3407.0907     -0.40950193   
  17315000   300.38838     -589.37788      1281.6809      3378.5052      3.8074516    
  17320000   301.4793      -558.48962      1268.1265      3405.5945     -4.4246107    
  17325000   294.68339     -570.20251      1258.2974      3323.2805      3.1212843    
  17330000   313.56239     -619.76744      1217.474       3401.7163      3.0709151    
  17335000   298.14853     -573.49051      1242.0383      3334.7201      2.5048862    
  17340000   299.14242     -589.74372      1276.641       3361.9575      2.5375241    
  17345000   288.76239     -601.39355      1272.6163      3253.4602      12.044577    
  17350000   302.35468     -569.64007      1256.8939      3391.0394      7.2088484    
  17355000   306.55093     -577.219        1303.9901      3468.0814      14.069277    
  17360000   303.96135     -570.01509      1272.8169      3420.9549      9.8067063    
  17365000   303.29113     -524.61121      1297.1535      3484.7021      2.7037814    
  17370000   303.52347     -586.63429      1296.6201      3424.2232      9.9611498    
  17375000   305.89727     -562.56156      1298.1404      3471.0438      8.5865783    
  17380000   292.92981     -591.65519      1271.9586      3299.8078     -1.9741747    
  17385000   310.72851     -627.98263      1326.8466      3477.532       14.228547    
  17390000   299.31043     -559.10799      1236.3382      3353.7929      17.440048    
  17395000   296.17975     -585.58394      1213.8444      3276.8272      7.6169764    
  17400000   308.29091     -573.10074      1315.5558      3499.325       11.193794    
  17405000   307.04525     -609.09668      1297.1642      3433.7983      4.6679751    
  17410000   300.8653      -592.05402      1317.5149      3415.9278      6.6668804    
  17415000   298.81193     -631.04496      1268.1284      3309.1883      18.267928    
  17420000   302.4945      -608.9017       1243.3478      3339.482       0.39469648   
  17425000   304.43886     -599.41954      1322.0835      3445.0872      10.893198    
  17430000   304.76505     -576.0915       1313.2789      3462.5276      7.8154397    
  17435000   294.49527     -574.7154       1302.6412      3361.4292      14.632401    
  17440000   297.12505     -556.59434      1227.313       3327.7387      17.499775    
  17445000   293.14303     -608.0031       1279.0087      3292.4167      11.68705     
  17450000   301.94152     -558.90529      1280.2982      3421.4838     -0.22915045   
  17455000   302.72603     -581.72095      1285.753       3411.1384      6.7597636    
  17460000   290.30866     -618.36264      1295.113       3272.8153      3.5642265    
  17465000   296.4446      -605.72353      1247.9087      3293.1203     -1.7306887    
  17470000   300.77686     -573.63453      1271.9724      3388.0139      6.073015     
  17475000   299.81109     -605.21077      1293.4749      3369.3039      11.803716    
  17480000   299.61478     -571.36912      1256.3492      3364.2643      14.293024    
  17485000   300.6826      -581.51523      1228.3637      3335.6816      6.4955159    
  17490000   292.80109     -585.15874      1248.8801      3282.0747      1.6816749    
  17495000   296.52541     -571.33276      1273.6538      3353.9789      5.1054832    
  17500000   307.93934     -529.96213      1273.7714      3497.5353      6.6544932    
  17505000   303.81195     -589.81051      1284.9431      3411.9498      12.359243    
  17510000   294.78664     -561.99364      1268.162       3342.2773      8.8292021    
  17515000   292.93802     -593.37756      1234.8603      3261.0605      2.6795987    
  17520000   292.67518     -610.06625      1264.1687      3271.3298      9.1221056    
  17525000   299.11901     -607.92396      1278.0895      3345.0164      13.833943    
  17530000   305.27052     -599.40909      1270.9988      3401.45        8.7823375    
  17535000   296.48175     -589.38584      1244.7362      3306.6177      7.7637914    
  17540000   299.71003     -586.26798      1272.7542      3366.6223      9.7779732    
  17545000   301.36367     -632.03981      1294.7658      3357.6496      15.463244    
  17550000   299.08122     -601.73983      1327.1966      3399.9697      9.0084433    
  17555000   295.94582     -577.43023      1222.9395      3291.9841      4.0537853    
  17560000   297.3372      -578.04027      1324.4115      3405.2884     -3.3254086    
  17565000   295.13835     -573.82295      1329.2845      3394.7156      8.1261287    
  17570000   301.79274     -573.92109      1310.5399      3435.3793      4.8559341    
  17575000   302.49533     -598.3999       1262.9044      3369.5479      1.9274281    
  17580000   296.44927     -627.49606      1291.9463      3315.4271     -3.1380795    
  17585000   300.94439     -560.90465      1266.9434      3397.2128      23.176449    
  17590000   299.32352     -568.12069      1313.3412      3421.9002      7.3326907    
  17595000   304.81658     -583.04914      1267.8921      3410.6439      6.3132747    
  17600000   299.6698      -572.69249      1254.0455      3361.1292     -10.737799    
  17605000   298.25594     -597.2977       1246.703       3316.5382      4.8628741    
  17610000   300.54474     -592.86551      1283.3146      3378.0495     -5.5525891    
  17615000   298.92488     -571.8118       1294.864       3396.167       4.0485588    
  17620000   296.49803     -604.41393      1270.6311      3317.6301      7.8895334    
  17625000   298.6767      -562.39871      1224.9887      3333.4855      15.798478    
  17630000   297.08569     -573.45321      1267.9901      3351.2049      4.4749717    
  17635000   296.55281     -605.87822      1295.3127      3341.3373     -7.1314869    
  17640000   300.30839     -566.93319      1281.9226      3400.4762      17.214218    
  17645000   288.0124      -544.68881      1273.8232      3304.6652      13.037125    
  17650000   297.14792     -530.37247      1291.1731      3418.0251      11.824243    
  17655000   290.31979     -585.58387      1238.0221      3248.6027      12.806193    
  17660000   300.19433     -550.09602      1237.4524      3371.8232      15.279874    
  17665000   294.31566     -545.69849      1299.7729      3385.9716     -2.4181163    
  17670000   303.46121     -550.84052      1322.2245      3485.0647      11.601655    
  17675000   301.0916      -598.30855      1219.3594      3313.5414      11.280427    
  17680000   302.88118     -597.09789      1311.86        3423.2558      5.3617544    
  17685000   302.52182     -625.54758      1264.7847      3344.5174     -0.063179301  
  17690000   300.72595     -608.40384      1256.7579      3337.5749      8.6414089    
  17695000   300.85148     -616.93581      1327.0791      3400.4867      4.2850868    
  17700000   302.73648     -581.24836      1246.4433      3372.3947      4.2581692    
  17705000   300.24449     -583.52407      1308.6717      3410.063       5.4167904    
  17710000   299.21179     -593.72498      1263.4791      3345.4347      12.708194    
  17715000   299.2736      -565.15234      1255.2454      3366.3263      9.2048508    
  17720000   303.03062     -547.81405      1238.4276      3400.4437      9.4221274    
  17725000   296.28452     -555.32489      1248.3838      3342.5625      6.1844839    
  17730000   306.7401      -553.49609      1277.4277      3466.9335      2.4624121    
  17735000   304.71542     -533.95816      1241.4081      3432.3463      13.303374    
  17740000   299.54949     -548.05006      1275.6682      3406.3185     -0.2800034    
  17745000   302.22677     -565.88621      1239.8269      3376.5825      2.0406911    
  17750000   294.52651     -579.05125      1300.9821      3355.7135      1.6284147    
  17755000   299.22547     -574.32996      1331.8317      3433.3046      2.6433447    
  17760000   297.15027     -586.88529      1306.2891      3376.6493      13.875826    
  17765000   294.5433      -570.52198      1259.3471      3322.758      -1.9811624    
  17770000   298.04922     -580.23894      1290.9525      3375.9979     -2.6380087    
  17775000   298.16117     -553.21507      1275.5768      3388.6472      0.010956382  
  17780000   298.00846     -557.00999      1248.921       3356.8309      6.4058676    
  17785000   299.02083     -571.34646      1296.5638      3399.1902     -6.9246657    
  17790000   301.14503     -583.61492      1267.2128      3376.5664      12.897914    
  17795000   302.1441      -535.82299      1327.7405      3493.82       -1.5174708    
  17800000   297.64999     -551.75031      1263.969       3373.9329      7.4292308    
  17805000   300.93925     -556.86477      1310.7814      3445.0449     -1.5162575    
  17810000   294.24116     -549.01582      1221.8553      3304.0705      12.725203    
  17815000   304.14419     -534.16573      1332.5583      3518.1807      7.5345916    
  17820000   298.00403     -549.8347       1312.851       3427.8965      6.9601382    
  17825000   296.92729     -552.84343      1285.4942      3387.9023     -5.431109     
  17830000   290.36583     -575.12891      1386.5645      3408.0118      3.5375475    
  17835000   305.01105     -593.00401      1283.5238      3418.0598      12.254836    
  17840000   302.32252     -561.06665      1282.9181      3425.3494      9.1959201    
  17845000   311.13996     -576.64167      1301.3304      3507.0362      6.5370291    
  17850000   299.92456     -574.2358       1309.5449      3417.3636     -2.3397797    
  17855000   294.68752     -567.98839      1306.8214      3374.0555      8.3561924    
  17860000   301.20168     -558.74311      1261.364       3396.0959      7.2311576    
  17865000   298.88227     -564.86971      1277.2738      3385.1379      13.162766    
  17870000   293.72652     -568.50489      1266.053       3324.177       8.2121048    
  17875000   297.58329     -568.33494      1259.3079      3352.0908      2.2746129    
  17880000   295.86881     -528.66207      1254.049       3371.1731      14.986217    
  17885000   294.70839     -525.89793      1323.4334      3432.9447     -3.4663711    
  17890000   306.60183     -551.47296      1228.5658      3418.8582      1.1419036    
  17895000   302.56047     -556.64881      1305.2763      3454.2534      8.9178306    
  17900000   305.89585     -587.38292      1265.5743      3413.6437      12.487974    
  17905000   292.43381     -531.3937       1288.8677      3372.5428     -1.1501973    
  17910000   303.65763     -540.729        1246.2593      3420.9675      16.829202    
  17915000   299.67858     -535.8878       1309.5343      3453.5013     -8.0820794    
  17920000   297.61877     -569.19983      1288.8465      3381.0818      13.316609    
  17925000   301.30806     -579.07113      1307.2325      3422.5877      4.5338032    
  17930000   307.20123     -600.67421      1305.623       3452.0743      22.019915    
  17935000   299.28244     -609.6198       1333.1599      3399.8524      7.6838297    
  17940000   299.48255     -626.46849      1309.7943      3361.4276      12.180911    
  17945000   309.53625     -595.01281      1283.7009      3456.6944      16.859319    
  17950000   297.516       -585.60191      1278.6944      3353.6085      4.737285     
  17955000   301.56554     -608.80557      1267.8505      3355.7737     -11.092314    
  17960000   296.61985     -598.86464      1260.7066      3314.3443      9.5898157    
  17965000   301.56912     -561.25167      1276.9608      3412.4699      20.48949     
  17970000   304.17309     -566.05649      1305.9055      3459.8956      10.780157    
  17975000   306.59901     -566.51096      1259.7766      3435.0059      5.6081781    
  17980000   304.08155     -540.86054      1267.4754      3445.843       0.90132013   
  17985000   304.38215     -550.97109      1242.2606      3413.2056      12.668736    
  17990000   296.74155     -548.43481      1271.0106      3376.1664      5.4526531    
  17995000   301.82157     -593.97106      1291.9005      3396.9478      15.020709    
  18000000   294.8984      -591.63424      1259.7185      3305.1926      8.8344388    
  18005000   302.5102      -563.41724      1316.5929      3458.352       2.4586448    
  18010000   303.52328     -604.88159      1288.8484      3398.2026      1.900731     
  18015000   301.54745     -561.85048      1226.1762      3360.8928      12.341511    
  18020000   298.86588     -535.64202      1305.3874      3442.3327      14.786839    
  18025000   296.27036     -562.47936      1271.9918      3358.8894      9.2502832    
  18030000   294.37509     -558.13739      1262.958       3337.2493      9.0162574    
  18035000   299.60978     -580.54016      1306.214       3404.9134      8.8956627    
  18040000   301.22454     -576.72977      1247.9667      3364.9164     -6.424111     
  18045000   300.99114     -575.85044      1247.8175      3363.5593      1.8518598    
  18050000   288.86979     -559.54299      1269.1199      3292.7748      1.5404919    
  18055000   306.83759     -551.86366      1253.0003      3445.0104      9.2391641    
  18060000   302.39283     -569.33561      1291.3203      3426.1115      20.657583    
  18065000   299.2445      -562.83346      1254.6028      3367.7424      3.6451292    
  18070000   304.13455     -574.96238      1232.4833      3377.2228      17.311314    
  18075000   300.48991     -561.6086       1271.9959      3397.4974      6.3395495    
  18080000   300.56429     -584.31473      1210.6495      3314.1099      6.3712688    
  18085000   297.02968     -525.48654      1327.621       3458.3017      8.9591686    
  18090000   298.07983     -563.79644      1241.7464      3343.508       6.0799345    
  18095000   309.88846     -557.62348      1293.2961      3506.8284     -2.6164588    
  18100000   287.13981     -581.67958      1299.139       3285.1872      4.3847852    
  18105000   297.01451     -567.13419      1285.638       3374.5353      0.8712574    
  18110000   296.76384     -566.70634      1298.0371      3385.1207      1.4674532    
  18115000   299.33462     -566.67326      1265.0938      3375.1994      23.276615    
  18120000   296.02032     -547.90831      1286.8207      3386.0534      9.9740148    
  18125000   304.1013      -527.70036      1267.6701      3459.3744      9.0422961    
  18130000   295.85033     -561.77284      1295.6957      3379.5438     -6.6022145    
  18135000   306.75784     -512.06374      1299.8859      3530.9827      6.5555779    
  18140000   299.99272     -519.56474      1296.7024      3459.8016      5.1384552    
  18145000   304.63791     -526.9073       1267.947       3465.243       2.2652131    
  18150000   300.88329     -584.66824      1246.7988      3352.7584      16.103926    
  18155000   305.45472     -568.88884      1301.0487      3463.6674      6.0289699    
  18160000   295.89494     -596.67166      1298.4248      3347.773       23.68994     
  18165000   295.31205     -597.08609      1259.9381      3303.6594      0.64251933   
  18170000   294.85449     -588.0499       1310.5557      3359.2215     -6.6714973    
  18175000   297.27734     -538.94225      1299.7987      3419.2383      4.6994338    
  18180000   301.79118     -567.98679      1256.1207      3386.8804      10.862342    
  18185000   310.50936     -559.62361      1274.076       3491.1606      6.7823607    
  18190000   302.13739     -579.53478      1254.6686      3376.9762      4.2839106    
  18195000   302.10916     -608.42335      1272.3323      3365.499       5.6563254    
  18200000   300.62039     -637.53902      1288.9491      3339.6869      9.2727381    
  18205000   305.67415     -629.69936      1176.1274      3279.8978      6.3779967    
  18210000   303.9552      -626.99863      1250.0235      3341.123       3.6862536    
  18215000   307.95526     -588.58646      1257.9565      3423.2385      1.3793822    
  18220000   296.85523     -593.8734       1282.1447      3342.8785      9.5011271    
  18225000   300.56829     -578.60447      1292.1168      3401.3233      5.1575625    
  18230000   289.01165     -555.95688      1297.7513      3326.261      -2.4051186    
  18235000   297.49753     -580.84693      1274.484       3353.988       6.888656     
  18240000   296.20861     -553.39771      1241.7578      3337.1849      13.19506     
  18245000   300.23496     -522.94319      1291.7286      3453.6155      1.2328868    
  18250000   294.52613     -582.98406      1282.9561      3333.7514     -2.351988     
  18255000   298.23307     -609.00897      1296.1819      3354.1013      1.8033582    
  18260000   295.48587     -574.83718      1286.424       3353.9486      13.349176    
  18265000   297.23697     -557.63175      1269.442       3369.8311      7.7692654    
  18270000   300.99364     -567.20176      1247.5608      3371.9736      1.5256715    
  18275000   299.32788     -592.71192      1301.9794      3385.9862      5.4067226    
  18280000   299.69148     -542.14587      1271.645       3409.4692      6.6519233    
  18285000   298.20425     -583.15583      1248.5686      3332.0835      1.3377524    
  18290000   297.63179     -569.74918      1263.93        3355.7324      1.5268488    
  18295000   304.17654     -596.73075      1284.8529      3408.1997      10.567009    
  18300000   304.19739     -557.06265      1316.2482      3479.4494      10.742869    
  18305000   303.58613     -554.5746       1234.1585      3394.3817      1.0645363    
  18310000   303.72352     -603.3456       1281.6821      3394.3629      8.1677717    
  18315000   299.64714     -587.76221      1316.2248      3408.0363      8.1773624    
  18320000   305.32945     -587.20149      1281.114       3424.2998      25.044781    
  18325000   296.2102      -571.0172       1271.0722      3348.894      -3.8233572    
  18330000   307.08712     -548.16696      1290.4632      3488.4014      3.813119     
  18335000   299.5697      -548.08421      1308.338       3439.1349      5.4460812    
  18340000   298.89818     -554.03307      1243.557       3362.4001     -5.578204     
  18345000   298.13409     -571.38601      1246.7464      3341.4037      12.970393    
  18350000   295.84346     -583.03968      1335.1599      3397.6797      12.895701    
  18355000   297.20064     -551.07706      1301.6578      3408.2767     -2.7499094    
  18360000   299.66409     -562.2667       1283.6216      3401.0801     -1.7702544    
  18365000   299.51859     -557.46716      1278.5517      3399.5086      5.6808151    
  18370000   310.00255     -565.59733      1300.1874      3506.7661      10.608856    
  18375000   294.84863     -592.39857      1319.9074      3364.1721      2.6208547    
  18380000   300.56679     -554.94882      1252.8675      3385.7162      6.4049788    
  18385000   298.58947     -560.68369      1211.9893      3321.4211      11.538367    
  18390000   302.7239      -564.99895      1295.1671      3437.2555      9.572761     
  18395000   304.79421     -567.12757      1234.3944      3392.8678      10.217909    
  18400000   293.7856      -607.98953      1258.8175      3277.9852      2.1287799    
  18405000   304.74351     -609.2015       1255.9685      3371.9146      11.12015     
  18410000   303.7174      -592.54053      1275.8288      3399.2599      10.668759    
  18415000   309.38529     -563.66775      1260.9583      3463.9469      16.563234    
  18420000   302.70319     -576.01815      1305.586       3436.4699      8.4488093    
  18425000   299.98024     -569.61846      1286.9495      3399.8834      10.974152    
  18430000   296.07317     -543.81559      1312.2372      3416.0353      11.043518    
  18435000   297.77466     -508.29554      1250.9278      3405.4614      14.265595    
  18440000   297.27165     -571.14094      1240.7881      3327.9781      10.98297     
  18445000   302.57205     -567.46117      1284.6471      3422.9154     -6.5134186    
  18450000   303.39444     -529.40059      1242.48        3426.163       17.435204    
  18455000   304.56119     -570.17346      1249.2235      3402.5672      14.053919    
  18460000   306.41913     -609.48736      1255.0541      3385.6984      14.681649    
  18465000   296.4506      -559.88009      1282.5566      3373.6653      2.0540852    
  18470000   297.07505     -579.40493      1290.2767      3367.4447      8.7353066    
  18475000   294.03521     -527.59087      1267.849       3369.6475      3.2460972    
  18480000   301.32497     -531.88109      1280.1505      3442.847       0.079622278  
  18485000   298.52638     -565.38752      1218.2435      3322.4073      10.745545    
  18490000   298.75604     -569.67998      1261.9361      3363.8611      11.964116    
  18495000   295.06299     -572.12202      1281.9702      3348.4283     -1.6053188    
  18500000   306.32722     -595.23792      1245.192       3389.2639      12.841939    
  18505000   295.4573      -623.53737      1260.7525      3279.3214      2.0595217    
  18510000   305.71974     -643.57898      1248.8888      3339.1873      20.969912    
  18515000   299.87882     -620.95435      1268.9856      3329.6767      21.691773    
  18520000   297.75628     -592.0142       1339.3441      3409.9946     -1.493034     
  18525000   304.72249     -586.11774      1293.6195      3432.4613     -1.1774113    
  18530000   308.84452     -587.31955      1248.3325      3422.8335      13.378029    
  18535000   298.44318     -595.97775      1228.0814      3300.911       9.6263268    
  18540000   297.69871     -582.716        1243.8098      3323.2438      10.245694    
  18545000   299.22841     -636.61866      1319.5924      3358.803       7.9902491    
  18550000   301.71904     -586.55443      1281.9345      3393.4816      14.351058    
  18555000   294.51994     -605.71593      1290.5907      3318.5988      8.0963581    
  18560000   297.50873     -597.9597       1242.5716      3305.0629      3.542902     
  18565000   295.16698     -548.58214      1271.033       3361.961       5.4508564    
  18570000   309.34528     -562.2751       1280.6477      3484.6712      2.0672146    
  18575000   289.43473     -560.48256      1254.6026      3282.37        11.08541     
  18580000   300.00084     -553.83779      1281.5337      3410.4325      20.09366     
  18585000   302.07585     -557.55089      1281.3167      3425.0579      3.9744143    
  18590000   294.54154     -567.19111      1271.1066      3337.8326      4.3232846    
  18595000   297.88861     -571.99211      1256.5102      3348.3662      18.371252    
  18600000   302.37186     -571.02803      1281.2777      3414.1889      10.82477     
  18605000   291.57262     -586.55602      1275.7705      3296.5822     -2.1304378    
  18610000   301.59356     -569.25392      1248.5422      3376.2676      4.9408249    
  18615000   301.81111     -586.26956      1284.1108      3396.7661      6.866285     
  18620000   302.38108     -652.59159      1275.3019      3326.732       3.2347805    
  18625000   300.15645     -610.248        1279.9906      3353.8706      5.6985138    
  18630000   301.69755     -599.9531       1302.7632      3400.7194      2.8231285    
  18635000   295.24902     -591.47486      1235.2646      3284.0334      15.111552    
  18640000   303.23244     -559.5442       1299.6084      3451.6991      1.5049859    
  18645000   300.45221     -546.52624      1321.7997      3462.0463      7.4031661    
  18650000   301.48862     -533.85217      1263.9491      3426.1379      0.47062255   
  18655000   298.97198     -560.21225      1247.5611      3360.8849      20.130048    
  18660000   291.71466     -592.77641      1243.5834      3259.445       9.0766212    
  18665000   306.44607     -577.93556      1272.417       3434.8541     -1.6094288    
  18670000   305.12413     -582.4573       1300.7717      3446.8656      0.59810462   
  18675000   300.44701     -583.01474      1200.9732      3304.6849      10.175969    
  18680000   299.5407      -608.35507      1290.8742      3361.141       11.120742    
  18685000   302.36038     -592.55802      1271.5092      3382.7877      15.435126    
  18690000   299.8755      -565.80988      1298.2473      3414.0532     -2.3365167    
  18695000   298.63574     -557.67391      1241.3629      3354.2182      2.9596556    
  18700000   300.25834     -581.72846      1298.0254      3401.3362      11.140927    
  18705000   295.6295      -620.072        1283.2409      3306.8151      2.6517066    
  18710000   292.29381     -592.29519      1281.4445      3302.9663      23.131299    
  18715000   297.70659     -563.90029      1299.1939      3397.514       3.9845298    
  18720000   287.04811     -560.23798      1272.6082      3279.2779      11.46048     
  18725000   301.58046     -586.44625      1265.8088      3376.2247     -0.25304111   
  18730000   291.94977     -561.50895      1288.6512      3337.8827      11.49948     
  18735000   295.29728     -575.26703      1274.0993      3339.5076      8.6501675    
  18740000   304.64192     -556.23291      1306.2464      3474.2526      6.4208452    
  18745000   298.39159     -549.06987      1290.6323      3409.9084      5.2560009    
  18750000   306.9766      -516.97229      1279.3377      3507.4821     -2.9375853    
  18755000   290.86504     -490.92001      1235.5266      3345.6469     -3.7096105    
  18760000   298.34585     -532.75358      1277.3131      3412.4965     -4.3096644    
  18765000   298.9124      -544.83053      1243.9523      3372.125       2.3202259    
  18770000   290.39724     -570.03809      1219.5526      3246.3715      8.9226363    
  18775000   294.89852     -544.54145      1229.6984      3322.2664      17.843041    
  18780000   304.97075     -602.5719       1285.7714      3410.3791      4.2660802    
  18785000   294.50017     -581.57089      1267.0238      3319.0001     -1.1866851    
  18790000   306.75466     -624.3221       1322.2712      3441.0812      10.964893    
  18795000   300.99242     -617.67691      1278.4879      3352.4147      13.666271    
  18800000   295.69579     -590.05076      1266.0413      3320.2295      13.688539    
  18805000   301.94845     -604.03009      1308.3806      3404.5034      9.7497405    
  18810000   302.5418      -618.6275       1247.6283      3334.4597      12.074691    
  18815000   293.47328     -576.07463      1269.732       3318.0217     -2.0101219    
  18820000   297.39502     -627.2832       1284.2048      3316.3558     -6.2038044    
  18825000   299.64858     -590.85588      1346.0829      3434.8135      5.6210699    
  18830000   306.82673     -592.96356      1239.8725      3390.6855      10.991779    
  18835000   294.90273     -594.80308      1276.012       3318.356       7.7042615    
  18840000   291.37249     -602.85767      1277.3738      3280.0943      4.4440156    
  18845000   296.89612     -558.0812       1249.8947      3346.7863      13.987922    
  18850000   301.75213     -594.37846      1324.9358      3428.9548      1.688698     
  18855000   305.6475      -585.55248      1237.6188      3385.2978      12.204517    
  18860000   300.66936     -605.73103      1302.2043      3385.188       16.176049    
  18865000   296.71949     -566.99303      1266.1177      3352.518      -1.7915407    
  18870000   306.85329     -583.609        1268.9048      3429.3099      4.4771079    
  18875000   298.74803     -571.64238      1300.6125      3400.5035      11.073869    
  18880000   302.39142     -574.97703      1306.0461      3435.1832      1.1381298    
  18885000   301.15388     -568.40475      1287.5724      3412.2152      7.2758358    
  18890000   302.45578     -607.2681       1279.6717      3377.0933      7.3095203    
  18895000   301.58554     -582.55139      1261.6726      3376.0288      8.9654446    
  18900000   296.12298     -577.70491      1301.1128      3371.4669      7.0370548    
  18905000   300.24094     -551.41146      1263.585       3397.0573     -5.8817919    
  18910000   310.62357     -584.60273      1248.7986      3441.9255      11.693842    
  18915000   299.46321     -583.32779      1334.319       3428.9201      0.7647941    
  18920000   299.70989     -597.02486      1311.7846      3394.8945      8.2691642    
  18925000   302.52334     -557.3348       1287.2507      3435.2098     -1.9793101    
  18930000   292.39261     -597.04004      1270.3245      3287.985       8.360905     
  18935000   304.36648     -594.72698      1274.0651      3401.1141      25.245731    
  18940000   296.3727      -604.6142       1283.667       3329.3449      6.5666499    
  18945000   297.92379     -590.84238      1241.307       3314.6273      1.1622212    
  18950000   302.60199     -572.10433      1273.902       3407.7948      26.129123    
  18955000   303.43183     -561.69556      1353.1881      3504.9104      10.921556    
  18960000   304.70211     -567.0908       1281.2523      3438.9389      21.173842    
  18965000   298.17803     -566.55267      1281.4483      3381.3319      8.7916215    
  18970000   299.02747     -549.60742      1269.1264      3393.5513      14.181948    
  18975000   301.00763     -584.17235      1291.3529      3398.9202     -0.17351468   
  18980000   291.28336     -534.89352      1297.2279      3367.1155      4.6112228    
  18985000   302.64778     -575.86189      1272.3856      3402.9303      0.15110233   
  18990000   301.07551     -587.27678      1270.2234      3375.2933      8.2347359    
  18995000   300.62338     -620.51631      1280.7993      3348.5865      1.0094779    
  19000000   298.31361     -563.5999       1268.2695      3372.3182      0.84438167   
  19005000   300.9047      -576.88034      1255.3233      3369.2622      6.7001268    
  19010000   294.70381     -570.48715      1276.4703      3341.3513      17.041307    
  19015000   305.70934     -548.33023      1286.0481      3471.5023      7.9846167    
  19020000   304.38933     -552.80313      1272.779       3441.9562      4.7758052    
  19025000   307.16971     -569.90492      1316.4302      3493.3689     -1.4854274    
  19030000   294.95648     -525.98865      1296.9276      3408.5667     -0.073557033  
  19035000   300.14208     -548.92987      1283.4217      3418.4914      8.8227441    
  19040000   305.60882     -538.25765      1341.7586      3536.3865      0.53730151   
  19045000   296.59586     -556.68964      1266.3192      3361.9173     -2.0644383    
  19050000   298.7641      -573.70959      1256.1516      3354.1191      3.7346311    
  19055000   295.26339     -568.51979      1271.7376      3343.59        8.5731621    
  19060000   303.16679     -606.6085       1280.6157      3385.0551      5.4154292    
  19065000   300.85286     -564.99824      1239.8548      3365.2122     -4.4851033    
  19070000   299.96991     -594.57065      1290.5101      3378.3994      3.1609015    
  19075000   299.58376     -583.60906      1294.7896      3390.1874      14.252781    
  19080000   297.75973     -574.45372      1301.6671      3389.909      -9.4301469    
  19085000   295.75391     -553.36702      1281.0545      3372.4462      6.2745297    
  19090000   304.84717     -557.08527      1241.6787      3410.668      -1.2692294    
  19095000   290.45741     -580.32984      1281.6037      3298.669       6.8547714    
  19100000   302.73339     -599.10486      1295.6039      3403.6713     -1.4501019    
  19105000   299.62885     -626.47607      1304.5774      3357.5114      2.587088     
  19110000   302.66952     -616.29801      1283.6232      3373.9263     -1.8369325    
  19115000   298.83408     -629.43906      1243.1814      3286.0452     -2.0937914    
  19120000   291.36835     -618.57868      1177.6359      3164.5984      15.994374    
  19125000   298.77803     -568.28829      1271.1266      3374.6399      0.9982458    
  19130000   296.26509     -535.55122      1236.358       3350.1366      8.2985171    
  19135000   299.63444     -521.64365      1275.7547      3433.5711      11.299033    
  19140000   300.3602      -539.63156      1268.4159      3414.7344      5.4281126    
  19145000   307.04458     -543.65938      1241.2674      3443.3327     -2.8184922    
  19150000   304.73379     -526.16913      1294.8364      3493.7279      9.6301245    
  19155000   300.138       -570.87012      1245.844       3358.9369      8.1341602    
  19160000   304.02481     -532.2168       1296.27        3482.7738      9.7546927    
  19165000   303.20199     -564.69563      1296.4627      3443.1297      15.300185    
  19170000   293.05623     -573.69986      1319.9904      3366.9253     -4.1556078    
  19175000   296.25706     -575.31666      1282.4228      3356.3642      8.3548594    
  19180000   301.19461     -594.05136      1268.7973      3368.1578      8.3489987    
  19185000   298.86203     -597.26557      1252.2347      3327.5219     -9.5570024    
  19190000   293.58222     -616.57531      1275.4492      3284.2124      10.378787    
  19195000   300.89431     -600.0819       1275.4008      3366.0452      5.9712472    
  19200000   299.20204     -623.07222      1275.1856      3327.7067      15.919836    
  19205000   302.08158     -601.66107      1234.9666      3334.649       9.3362169    
  19210000   292.90728     -569.36665      1257.8575      3307.7937      8.7572101    
  19215000   299.78364     -576.41289      1258.5129      3362.8942     -5.5261015    
  19220000   295.44291     -604.71031      1276.9326      3314.1998      3.0981044    
  19225000   300.4831      -575.48782      1307.0112      3418.5725      9.6573273    
  19230000   300.63218     -615.18609      1298.3757      3371.5719      5.0301277    
  19235000   304.03247     -570.91112      1302.2425      3450.1205      3.1492497    
  19240000   301.12956     -583.57781      1273.9039      3383.1561      6.2196041    
  19245000   294.91518     -555.53796      1289.7674      3371.4878     -1.4587467    
  19250000   307.34612     -585.54416      1260.3155      3423.1926      4.5181353    
  19255000   305.45762     -578.48688      1241.2827      3394.3293      2.4359934    
  19260000   290.95144     -576.61553      1254.8838      3280.0812     -0.20575806   
  19265000   301.9539      -545.27848      1280.8459      3435.7691      0.36931455   
  19270000   300.35286     -538.99364      1260.6634      3407.5542      3.7358597    
  19275000   300.76608     -522.68558      1314.0849      3480.979       4.4088529    
  19280000   296.74269     -529.21161      1333.4396      3457.8288     -2.4966841    
  19285000   295.53944     -532.50751      1255.0548      3365.3882      24.576861    
  19290000   298.91558     -529.61492      1296.4496      3439.8664      4.6177913    
  19295000   303.09094     -534.1732       1232.6288      3408.8251      11.564476    
  19300000   300.01579     -540.64481      1226.5174      3368.7428      4.5643571    
  19305000   297.58373     -583.5767       1295.6609      3373.206       2.0212293    
  19310000   301.26773     -572.47758      1274.5917      3396.1797     -0.31669237   
  19315000   304.35878     -560.08448      1344.4833      3506.106       5.3776832    
  19320000   304.78338     -556.45585      1266.2416      3435.2898      5.6212883    
  19325000   299.58182     -575.30058      1247.875       3351.5638     -3.9962543    
  19330000   301.27606     -571.8842       1277.5802      3399.8361      8.3394874    
  19335000   301.28343     -600.41581      1265.1904      3358.9806      11.675217    
  19340000   296.21386     -599.78692      1272.6123      3321.6971      14.688638    
  19345000   301.01063     -602.5028       1218.6577      3307.9214      9.8808865    
  19350000   298.98982     -570.62166      1382.146       3485.22       -1.1940144    
  19355000   300.26668     -559.11118      1279.7488      3405.7514      9.028199     
  19360000   293.50717     -575.40686      1285.083       3334.3435      14.949738    
  19365000   300.39753     -551.35923      1274.5941      3409.5188      4.4496486    
  19370000   298.97642     -557.44219      1273.7055      3389.8391      9.49155      
  19375000   302.24185     -552.68334      1256.3116      3406.4048      15.485808    
  19380000   301.24643     -531.07648      1243.5351      3406.3338     -5.1127222    
  19385000   302.74985     -554.46758      1308.2518      3461.1036      12.853393    
  19390000   294.67447     -581.20464      1257.3175      3311.2187      9.9808759    
  19395000   302.79572     -586.36464      1270.7019      3392.0668      14.801164    
  19400000   297.61147     -574.26299      1261.7551      3348.8619      9.9107662    
  19405000   290.48945     -599.72295      1270.5207      3268.4794      6.1772035    
  19410000   297.49253     -565.86191      1291.2234      3385.6676      7.8361186    
  19415000   297.34928     -565.01271      1259.563       3353.5754      8.9654753    
  19420000   304.14081     -567.96146      1237.8006      3389.5972      11.21777     
  19425000   304.85518     -575.09405      1326.9014      3477.9535      5.5234668    
  19430000   298.23836     -587.02071      1274.5535      3354.5085      6.0484739    
  19435000   298.08076     -579.25833      1269.3256      3355.6337      0.91517369   
  19440000   297.87356     -551.7021       1276.0108      3388.0222      6.4499132    
  19445000   299.67064     -559.56508      1242.6459      3362.8646      2.08287      
  19450000   297.66742     -576.48046      1278.3349      3363.7246      7.4267035    
  19455000   297.52009     -590.74582      1300.0831      3369.8899     -1.5046362    
  19460000   302.81384     -570.74866      1321.2987      3458.4417     -0.71910778   
  19465000   299.41748     -574.73029      1239.408       3342.1976      8.1107009    
  19470000   299.731       -539.9206       1297.366       3437.7689      9.1037475    
  19475000   303.4063      -595.7488       1278.9347      3396.3756     -4.2406489    
  19480000   298.09229     -592.55805      1275.5757      3348.6871      8.0546051    
  19485000   303.31937     -577.10035      1244.952       3380.264       19.132889    
  19490000   297.48435     -603.17182      1289.0362      3346.0974      5.3735884    
  19495000   306.89511     -569.62057      1305.0963      3479.8638      4.3038355    
  19500000   302.24121     -596.15217      1250.7651      3357.3838      5.9094691    
  19505000   300.91269     -551.28593      1271.9879      3411.5927      1.05326      
  19510000   306.43082     -572.2945       1286.7805      3454.7223      3.3536371    
  19515000   290.5179      -574.6805       1249.6316      3272.8871      13.383056    
  19520000   298.34529     -567.07726      1294.2909      3395.1456      15.202263    
  19525000   296.32543     -585.93648      1228.8381      3292.7711      19.318459    
  19530000   295.31554     -608.0048       1265.3431      3298.1769      7.7889128    
  19535000   296.64947     -562.91855      1267.1394      3356.988      -4.1370711    
  19540000   298.21973     -553.1413       1290.9973      3404.6651      3.0684712    
  19545000   291.66992     -605.18598      1239.4108      3242.4627      1.1264549    
  19550000   299.98124     -570.45042      1261.8461      3373.9569     -6.1684543    
  19555000   308.23841     -599.04642      1262.0613      3419.4153      7.0814983    
  19560000   300.54394     -596.75605      1271.2068      3362.0439      7.8725498    
  19565000   299.6016      -582.06511      1262.6906      3359.7919      17.138434    
  19570000   299.33933     -584.83139      1240.8779      3332.8675      10.156944    
  19575000   297.9333      -573.02072      1290.9343      3382.1613      11.392601    
  19580000   294.86068     -552.606        1276.2812      3360.4463      12.701601    
  19585000   298.5829      -565.38544      1273.1206      3377.7919      13.984219    
  19590000   305.30986     -592.13374      1279.0941      3417.1724      20.504654    
  19595000   300.52343     -546.48993      1259.7868      3400.7067     -1.9367911    
  19600000   294.02492     -553.17059      1255.6739      3331.8006      11.193908    
  19605000   299.18169     -516.01298      1257.4382      3416.8366      1.1699296    
  19610000   299.56641     -555.93173      1279.9188      3402.8388      17.838412    
  19615000   303.94544     -533.32192      1307.0402      3491.7292      10.641927    
  19620000   305.12096     -544.39876      1283.7386      3467.8627      14.021942    
  19625000   303.72654     -554.87151      1266.8725      3428.0544      8.7936339    
  19630000   299.28324     -576.68511      1279.1902      3378.8245      4.3724919    
  19635000   299.8777      -566.3963       1282.5312      3397.7703      3.9778421    
  19640000   303.03204     -585.49407      1276.3025      3400.6513     -2.3468713    
  19645000   299.7509      -563.69594      1266.4655      3383.2711      7.0134158    
  19650000   302.58904     -564.31699      1267.6245      3409.1888      5.4665832    
  19655000   298.94602     -576.85292      1251.5018      3347.9528      20.169788    
  19660000   298.98649     -588.75641      1333.9994      3418.9087      10.411926    
  19665000   295.62111     -629.40608      1240.1686      3254.3337      7.1572506    
  19670000   292.74075     -608.67576      1253.7868      3262.9248     -5.4311251    
  19675000   295.03187     -625.70826      1263.589       3276.1827      0.50662284   
  19680000   298.17018     -581.17795      1303.0401      3388.2282      9.004638     
  19685000   304.43453     -592.70925      1244.7235      3374.3988      4.4414296    
  19690000   298.92286     -598.0807       1321.2959      3396.3119     -6.5702372    
  19695000   299.57264     -571.53655      1318.0799      3425.4508     -4.3841218    
  19700000   300.73008     -583.92344      1293.1835      3398.5178      11.719624    
  19705000   305.96787     -595.76835      1325.1255      3465.4534      1.50857      
  19710000   297.32483     -571.35609      1259.3039      3346.7543      0.099667453  
  19715000   295.9854      -523.30029      1241.0228      3364.5513     -6.7102339    
  19720000   300.75944     -522.74202      1274.3774      3441.1557      11.648664    
  19725000   296.60197     -540.58834      1241.0813      3352.8354      10.823198    
  19730000   301.41769     -539.13227      1258.5431      3414.8175      6.0742096    
  19735000   294.91281     -548.25937      1273.0989      3362.0767     -0.89584581   
  19740000   297.7277      -516.4721       1245.6462      3391.5833      6.7454293    
  19745000   299.96253     -547.90877      1213.864       3348.3492      5.0977863    
  19750000   297.94719     -523.45414      1289.7217      3430.6394      1.5043886    
  19755000   297.50605     -559.70582      1276.0949      3376.8161      5.6195516    
  19760000   293.1993      -556.21052      1295.9858      3361.6895     -0.15802671   
  19765000   294.85127     -585.23627      1266.3386      3317.7892     -0.10296074   
  19770000   300.57583     -566.95408      1265.0291      3385.9534     -2.07557      
  19775000   304.60495     -596.57332      1240.9989      3368.3341     -1.9033705    
  19780000   295.65024     -597.99615      1273.2762      3319.1116      11.049856    
  19785000   306.39976     -613.2202       1268.053       3394.7913      9.9285269    
  19790000   294.81196     -615.26291      1238.5515      3259.6239     -3.4756402    
  19795000   298.22835     -617.60369      1272.1795      3321.462       0.6580138    
  19800000   296.78086     -623.50756      1312.0033      3342.4378      9.6812984    
  19805000   305.60892     -627.91498      1280.0334      3385.0049      5.6411147    
  19810000   304.85937     -605.13605      1260.1418      3381.1894      6.751664     
  19815000   297.42954     -627.21233      1251.9996      3284.5302      7.1719987    
  19820000   293.3013      -580.71917      1280.2171      3322.3243      10.063223    
  19825000   295.92677     -601.80614      1281.9779      3326.4763      19.184692    
  19830000   288.44983     -585.09682      1295.3083      3289.654       8.4770171    
  19835000   300.16551     -614.87324      1277.6989      3347.0348      0.61136822   
  19840000   313.6318      -575.04401      1279.3056      3508.8921      10.997744    
  19845000   298.31906     -599.6236       1302.505       3370.5787      5.2095379    
  19850000   299.59335     -529.82344      1263.4976      3412.7668      15.939884    
  19855000   307.12719     -552.46688      1315.1222      3509.1187      10.00248     
  19860000   301.37713     -509.60749      1291.7593      3477.1957      15.485595    
  19865000   304.63999     -545.31641      1270.469       3449.3745      7.6069644    
  19870000   300.45996     -552.54821      1269.942       3404.236       5.5465274    
  19875000   299.67879     -554.23229      1324.1726      3449.797       9.5768209    
  19880000   292.10811     -554.6024       1271.6213      3329.1752      1.4409993    
  19885000   296.34562     -591.11021      1305.8065      3364.7463      7.7874576    
  19890000   304.27738     -581.31429      1266.0715      3405.7365      19.898627    
  19895000   302.32422     -545.79412      1265.7188      3423.4379      5.6466262    
  19900000   304.60185     -572.83978      1297.1221      3448.1631      7.8887482    
  19905000   303.98676     -547.73012      1299.0478      3469.698       15.326537    
  19910000   295.25052     -580.08694      1297.1799      3357.3502      11.382415    
  19915000   301.43041     -594.76946      1274.8531      3375.604      -6.517068     
  19920000   299.47358     -615.87501      1292.7831      3354.9297      6.2130308    
  19925000   292.62985     -592.67683      1328.5361      3352.6813     -4.5496297    
  19930000   307.71395     -584.81389      1286.4587      3453.3553      2.3805229    
  19935000   311.2301      -575.40971      1352.8456      3560.5893      3.5770152    
  19940000   299.56299     -559.87413      1245.1327      3364.0797      9.4209348    
  19945000   293.2328      -550.75485      1270.283       3341.7421      2.8615112    
  19950000   294.84589     -563.37516      1275.754       3349.0176     -4.2322017    
  19955000   301.60711     -579.57949      1299.6387      3417.1597      10.653773    
  19960000   299.30601     -542.42485      1290.8021      3424.9003      15.881333    
  19965000   298.94991     -559.70842      1291.4041      3405.0344     -2.8252117    
  19970000   306.79514     -595.10324      1248.8887      3397.2796      11.281058    
  19975000   297.10802     -586.6347       1262.3547      3332.5877      10.604193    
  19980000   297.96289     -601.24499      1327.3426      3390.6099      1.5662417    
  19985000   300.80715     -586.02393      1292.3264      3396.2494     -0.084959113  
  19990000   295.97185     -592.32273      1288.4835      3342.8684      9.9543396    
  19995000   297.81813     -592.10695      1240.7821      3311.8929      8.5298625    
  20000000   301.21949     -616.95557      1284.5033      3361.182       13.621389    
  20005000   307.7904      -610.5764       1273.6997      3415.5175      19.398143    
  20010000   303.30623     -588.41191      1253.3588      3377.2416      6.6833897    
  20015000   295.0808      -637.15826      1297.1538      3298.735       12.067221    
  20020000   300.552       -626.29171      1305.1754      3366.5489     -6.1508407    
  20025000   304.44619     -617.79246      1273.896       3378.5923      1.313794     
  20030000   295.55384     -577.21791      1287.8964      3353.648       1.7953847    
  20035000   300.76241     -548.33464      1325.5011      3466.7133      2.6180085    
  20040000   295.83907     -522.39361      1288.0145      3411.1412     -1.5140561    
  20045000   297.67743     -530.09417      1298.0868      3429.9523      4.5458048    
  20050000   296.90409     -535.68922      1339.4332      3458.7881     -10.379943    
  20055000   304.58797     -539.72448      1286.3372      3470.3693      3.421638     
  20060000   292.39425     -586.21695      1294.0315      3322.5298      3.4193771    
  20065000   295.89961     -568.47642      1230.761       3308.3462      10.37848     
  20070000   302.95925     -588.96694      1321.0994      3441.3245      5.917659     
  20075000   301.67024     -591.88123      1288.5635      3394.3473      15.742261    
  20080000   294.76935     -553.96162      1307.6865      3389.6792      7.0227036    
  20085000   303.61293     -551.54904      1262.9162      3426.4046      12.536129    
  20090000   300.12737     -554.7578       1324.7374      3453.8477      8.964668     
  20095000   305.96784     -577.05001      1277.7885      3436.8345      8.9638014    
  20100000   299.86345     -552.66434      1237.4087      3366.2523      3.2307515    
  20105000   294.42354     -571.75883      1224.9747      3286.0778      8.8724049    
  20110000   297.29455     -567.77796      1240.4037      3331.1614      1.7422526    
  20115000   297.94996     -562.60983      1280.8114      3382.5983      3.8774464    
  20120000   299.42575     -560.83666      1244.3198      3361.077       12.039332    
  20125000   297.4913      -558.17946      1263.1886      3365.3043     -3.4652802    
  20130000   303.89042     -583.56438      1250.2478      3384.2023      17.503338    
  20135000   297.98955     -569.59399      1268.1434      3363.3002      5.7338033    
  20140000   297.49362     -608.60531      1260.2002      3311.9108      7.6891087    
  20145000   301.40703     -623.3805       1297.3354      3369.2663      17.438126    
  20150000   296.5963      -653.50997      1224.4794      3223.2611      5.451932     
  20155000   300.63047     -606.13621      1259.8041      3342.0348      4.3976638    
  20160000   295.42877     -570.4626       1299.4306      3370.8191      1.0045652    
  20165000   293.90165     -579.54242      1318.4446      3367.0972      2.9604292    
  20170000   296.11224     -541.51331      1215.7085      3322.1582      2.8535329    
  20175000   301.94598     -551.21254      1248.3564      3397.2747      7.9763338    
  20180000   298.08715     -554.74121      1280.5853      3391.4676     -4.5448651    
  20185000   303.76437     -592.71335      1289.4379      3413.1162      0.20241823   
  20190000   301.29449     -581.77754      1284.0792      3396.6066     -2.3255454    
  20195000   301.33164     -586.69611      1273.8114      3381.7524      18.171656    
  20200000   300.56875     -591.3293       1268.613       3365.0988     -0.42679708   
  20205000   293.89788     -567.47045      1290.0646      3350.7555      1.002496     
  20210000   307.98593     -588.67475      1306.1957      3471.6636      3.4180141    
  20215000   299.35778     -594.51865      1245.2887      3327.7561      2.4442648    
  20220000   298.61001     -546.12492      1276.1626      3400.3369      2.1953807    
  20225000   305.53304     -578.52025      1257.288       3410.9756      2.6998655    
  20230000   303.04764     -618.51047      1237.4022      3328.8742      11.503672    
  20235000   296.42342     -566.76681      1268.0273      3352.0063      4.9230376    
  20240000   299.29122     -582.95679      1266.0716      3359.5056      5.1508718    
  20245000   299.10455     -596.19111      1265.0874      3343.6178      2.6701775    
  20250000   301.92018     -635.73036      1307.6107      3371.7805      4.7647445    
  20255000   303.37082     -633.98444      1250.1281      3329.016       17.217685    
  20260000   304.95254     -645.85217      1267.5229      3348.6875      11.832565    
  20265000   297.38212     -590.2033       1278.9236      3348.0391      4.4933083    
  20270000   303.57701     -611.11365      1311.2464      3414.8489      5.0428126    
  20275000   302.72555     -626.35803      1316.6679      3397.412       8.6427093    
  20280000   308.00006     -613.73847      1245.2118      3385.7423     -3.2651164    
  20285000   309.46723     -598.58285      1262.4298      3431.236       10.824825    
  20290000   296.25157     -569.67087      1292.2503      3371.7884      8.4414871    
  20295000   300.81263     -580.28061      1245.5045      3355.2198     -10.868129    
  20300000   302.03054     -597.84782      1275.2574      3378.2966     -1.0173816    
  20305000   300.19629     -611.07818      1266.7155      3340.1217      15.408422    
  20310000   303.38838     -604.41892      1240.0023      3348.6128      4.6630244    
  20315000   289.7708      -618.56555      1214.3752      3187.0648      3.5981009    
  20320000   299.8033      -588.94931      1277.6686      3369.6893      12.414821    
  20325000   298.29329     -593.25636      1232.9805      3307.1911      10.28087     
  20330000   304.11312     -560.72097      1234.0401      3392.8294     -2.6945842    
  20335000   299.46627     -586.68717      1266.3194      3357.5885      19.277954    
  20340000   304.55063     -587.90377      1262.1774      3397.6963      7.6865808    
  20345000   299.10373     -597.77864      1249.4462      3326.3818      0.79065885   
  20350000   298.34464     -612.00777      1255.4655      3311.3839      0.57729753   
  20355000   299.49276     -554.8483       1282.726       3406.0707      0.43305      
  20360000   306.59852     -531.61006      1283.5521      3493.678       1.6565265    
  20365000   300.38356     -540.96474      1254.5796      3399.7739      10.155146    
  20370000   302.97479     -581.18612      1295.0383      3423.1831      4.6799594    
  20375000   301.61967     -612.84435      1241.1867      3325.5552      13.277883    
  20380000   299.39121     -572.12828      1255.7185      3360.8752      12.160339    
  20385000   298.57565     -556.3927       1253.9565      3367.5557      13.182401    
  20390000   294.89099     -578.87289      1241.0479      3299.2172      4.7491631    
  20395000   297.02472     -590.78481      1245.73        3311.068      -3.8680737    
  20400000   294.82499     -614.30804      1252.9061      3275.05        2.8829784    
  20405000   299.96696     -596.90337      1272.4077      3357.938       11.452177    
  20410000   296.9791      -562.67585      1266.6316      3359.6706     -2.5069802    
  20415000   302.75493     -614.13696      1270.5015      3363.7294      4.4742443    
  20420000   297.52222     -577.62466      1289.2998      3372.2468     -4.0841415    
  20425000   300.11427     -612.4082       1288.9402      3360.2829      4.4459693    
  20430000   309.71336     -586.82008      1268.7393      3451.5093      5.556446     
  20435000   301.03362     -599.61959      1243.8527      3336.2052      5.8647747    
  20440000   305.04289     -588.58184      1325.0388      3464.2816      14.716114    
  20445000   300.67027     -604.41851      1266.8963      3351.2007      12.944963    
  20450000   293.20265     -613.74779      1278.2952      3286.4916      3.3214059    
  20455000   296.02687     -591.62544      1245.502       3301.0761     -3.9657704    
  20460000   308.16965     -570.10733      1292.0833      3477.7615      6.7658039    
  20465000   297.64529     -524.70957      1285.0228      3421.9854      7.3270896    
  20470000   289.66042     -534.88494      1270.0046      3325.3877      2.9475032    
  20475000   290.10979     -560.25786      1266.33        3300.3587      5.4116623    
  20480000   293.21342     -561.37105      1249.9877      3310.6572      5.5473497    
  20485000   298.71518     -563.0922       1309.8601      3418.0075      3.1692894    
  20490000   306.77298     -549.00031      1262.6982      3456.9939      8.9165591    
  20495000   297.02068     -547.46379      1286.8818      3395.5047      6.45008      
  20500000   285.85299     -575.48938      1257.7257      3238.4566     -4.1338252    
  20505000   296.68765     -594.23542      1284.4452      3343.3183     -8.0633735    
  20510000   289.89673     -618.14062      1268.0057      3242.2464      8.3406324    
  20515000   298.29156     -583.03182      1283.2299      3367.6495     -8.7890299    
  20520000   294.88528     -592.6488       1267.157       3311.4992      11.733473    
  20525000   307.04323     -591.12311      1288.3732      3442.9627      11.369597    
  20530000   302.13616     -607.01158      1250.5178      3345.3377      3.6445863    
  20535000   294.18249     -591.23179      1268.003       3307.4775      13.927162    
  20540000   298.35011     -580.24197      1256.2488      3343.9819      3.0798775    
  20545000   298.45955     -586.36153      1269.5959      3352.188       11.49379     
  20550000   303.16453     -580.44533      1268.4897      3399.072       5.1155031    
  20555000   298.31484     -599.7221       1268.5586      3336.4961      3.2458597    
  20560000   303.81474     -604.04043      1311.9941      3424.7958      1.7492893    
  20565000   303.1314      -614.94299      1259.831       3355.6194      1.9788409    
  20570000   302.16455     -590.63732      1250.9321      3362.3801      3.4045089    
  20575000   302.35301     -555.76136      1278.6127      3426.6221      1.8648512    
  20580000   299.52836     -606.2754       1274.8665      3347.1026      15.081953    
  20585000   298.65703     -571.55565      1295.2436      3394.4075      13.791826    
  20590000   299.85597     -609.8034       1257.449       3329.0867      11.38915     
  20595000   306.30102     -595.38563      1280.5045      3424.1943      11.572906    
  20600000   295.59643     -593.57277      1283.6378      3333.4155     -0.18302579   
  20605000   291.30539     -586.82771      1310.6156      3328.766      -1.4871394    
  20610000   301.36721     -542.36009      1276.5689      3429.1641     -4.6863768    
  20615000   302.48533     -544.15634      1294.4156      3455.2132      4.563725     
  20620000   296.73481     -520.75535      1314.3505      3447.1254      7.269654     
  20625000   300.39028     -605.56691      1227.5704      3308.2226      4.2408114    
  20630000   297.50236     -574.29257      1297.3803      3383.4818     -2.810245     
  20635000   295.17561     -543.7477       1301.5495      3397.3891      7.2096523    
  20640000   296.1092      -536.98744      1302.1255      3413.0739      1.6446199    
  20645000   294.18799     -580.10706      1252.0356      3302.6842      4.8580522    
  20650000   289.26036     -553.8712       1290.7014      3323.5207     -5.0276826    
  20655000   302.08579     -572.60944      1279.0496      3407.8213      23.375495    
  20660000   303.0814      -576.24621      1302.1683      3436.2064      8.3728741    
  20665000   298.71149     -576.76058      1303.3762      3397.8223      3.575895     
  20670000   299.58469     -567.38843      1315.985       3427.6117      15.312032    
  20675000   300.86097     -578.97201      1268.9677      3380.4239      5.7700406    
  20680000   298.35308     -554.7389       1306.6142      3419.8769      11.02332     
  20685000   292.83689     -537.11688      1320.3764      3401.933       3.2129061    
  20690000   303.19225     -538.00479      1221.8708      3395.1415      14.309924    
  20695000   294.52548     -549.36308      1279.9632      3364.3736      0.21052638   
  20700000   301.80938     -571.36803      1273.0742      3400.6154     -3.0857971    
  20705000   303.52979     -611.19565      1248.4533      3351.5516      8.2976535    
  20710000   298.5496      -628.36733      1311.6191      3353.0107     -2.7156456    
  20715000   302.2651      -640.22722      1262.0561      3324.8134      18.669443    
  20720000   295.55189     -628.43199      1248.0132      3262.5333      9.7842477    
  20725000   306.33405     -613.43434      1262.6275      3388.564       6.1554055    
  20730000   305.8157      -569.6797       1284.3819      3449.4377     -1.5719138    
  20735000   303.09199     -612.15571      1215.3738      3313.597       4.4769286    
  20740000   298.07408     -585.67867      1242.7551      3322.5831      20.018909    
  20745000   305.73818     -621.30829      1258.4634      3371.1975      9.8174263    
  20750000   296.17963     -602.02286      1282.1233      3328.6661      8.4539456    
  20755000   302.27441     -609.54072      1286.6666      3380.1937      14.511664    
  20760000   295.66837     -567.41713      1319.5986      3396.1752      20.565125    
  20765000   294.80891     -557.76141      1285.101       3363.6477      4.8249719    
  20770000   298.38748     -595.30312      1295.5391      3368.5453      5.4321024    
  20775000   300.78219     -626.46634      1254.5909      3317.8483      7.7818391    
  20780000   297.0837      -571.11568      1337.4197      3422.9542      2.2171197    
  20785000   297.90137     -528.65547      1266.8431      3402.1498      14.568857    
  20790000   300.47421     -516.68233      1287.8279      3458.1152      5.5176188    
  20795000   298.99524     -541.43257      1262.2671      3394.5786      5.7279881    
  20800000   298.08498     -542.28856      1255.464       3378.7795     -8.0262977    
  20805000   300.73574     -520.12808      1223.8298      3393.01        4.3795436    
  20810000   297.45554     -516.98187      1250.6662      3393.6597      4.4319941    
  20815000   292.64919     -569.2932       1296.9808      3344.6825     -2.5291858    
  20820000   298.6961      -568.49559      1310.0754      3412.6488     -1.1179312    
  20825000   295.8722      -559.51867      1266.4164      3352.7143      3.8043656    
  20830000   299.18431     -559.49808      1261.8742      3377.8109      4.5189797    
  20835000   301.66626     -582.90149      1306.9135      3421.6415     -1.4534483    
  20840000   299.48398     -573.15892      1277.8699      3382.8256      5.5229701    
  20845000   296.63242     -550.17381      1237.0662      3339.5071      0.14280723   
  20850000   301.75232     -540.4304       1325.3906      3483.3592     -2.4828246    
  20855000   296.46609     -582.01977      1248.3477      3317.4552      7.4591323    
  20860000   304.15763     -571.9073       1258.129       3406.1301      12.101772    
  20865000   296.67595     -579.11335      1261.379       3335.2696      23.859806    
  20870000   289.99518     -571.84658      1334.0745      3355.4895      2.939609     
  20875000   296.12245     -563.2376       1271.812       3356.6287      14.770262    
  20880000   302.46758     -563.57091      1309.4061      3450.6305      0.39342787   
  20885000   295.9553      -530.2958       1247.8218      3364.0856      8.7353129    
  20890000   298.12338     -528.05911      1278.2287      3416.1171      7.1724749    
  20895000   299.83267     -575.59806      1284.3961      3390.0307      6.2332243    
  20900000   302.11705     -580.8337       1210.7904      3331.6173      4.4584508    
  20905000   301.45938     -590.5922       1273.2459      3378.4331      10.239705    
  20910000   304.4293      -560.82114      1259.5286      3421.0452      7.2257512    
  20915000   295.0103      -573.15996      1265.0105      3329.9596      11.049871    
  20920000   301.45751     -565.61334      1228.5981      3358.7475      2.9856276    
  20925000   299.8609      -588.62834      1334.3507      3427.2076      12.06546     
  20930000   299.57664     -549.238        1309.3166      3439.0217      7.7255262    
  20935000   301.84804     -558.20927      1288.7738      3429.8196      6.9755198    
  20940000   297.74219     -545.55208      1307.9621      3424.9488     -3.0636345    
  20945000   293.49331     -554.93784      1268.7863      3338.3919      4.49475      
  20950000   299.98763     -593.33441      1261.3203      3350.6043      7.2479879    
  20955000   299.87549     -580.48317      1277.2175      3378.3499      2.930074     
  20960000   305.09687     -575.42799      1246.1669      3399.0464      11.478327    
  20965000   301.27085     -544.09422      1336.9048      3486.9041      5.548074     
  20970000   293.97113     -544.52268      1301.8211      3386.1147      4.4077869    
  20975000   300.19471     -590.08243      1271.3504      3365.7382      1.3418532    
  20980000   302.25479     -555.05164      1240.2399      3388.0807      7.4145854    
  20985000   291.82953     -582.35756      1227.0985      3254.4062     -4.4735643    
  20990000   298.0335      -548.96966      1274.2309      3390.405       0.43755099   
  20995000   304.65463     -576.15854      1236.6875      3384.8817      2.5033297    
  21000000   298.49489     -582.66628      1313.051       3399.6544     -11.24451     
  21005000   300.80542     -566.31449      1270.0325      3393.6495      8.1776382    
  21010000   296.11731     -563.46597      1259.2379      3343.7803      19.449287    
  21015000   301.23082     -603.09968      1316.2805      3406.9164     -0.62708424   
  21020000   293.41403     -616.9909       1281.7126      3288.5561     -2.992868     
  21025000   303.60692     -566.4901       1277.1685      3425.6621     -2.8439952    
  21030000   291.95616     -581.09079      1317.4821      3347.1888      12.007128    
  21035000   300.39565     -570.59922      1324.1056      3439.7735      1.7275561    
  21040000   286.24741     -601.41024      1245.4536      3203.7908     -4.4224293    
  21045000   297.36209     -568.15273      1277.3854      3368.3724      18.808972    
  21050000   299.71965     -574.18882      1321.4605      3427.4938      11.920405    
  21055000   302.26241     -561.02077      1300.5293      3442.469       4.1765064    
  21060000   296.96402     -572.75261      1272.5519      3355.3793     -6.1717339    
  21065000   298.81314     -575.00689      1262.3497      3359.4585     -2.6388713    
  21070000   298.7906      -580.14726      1328.5466      3420.3134      3.8069675    
  21075000   305.74029     -563.85153      1290.2359      3460.4455      16.740665    
  21080000   301.06108     -558.94834      1318.1348      3451.4041     -2.2695289    
  21085000   306.94561     -573.52719      1271.9533      3443.2658      10.841811    
  21090000   302.35578     -571.29072      1303.195       3435.6997      9.0524814    
  21095000   304.19819     -579.92355      1276.4035      3416.751       6.7746203    
  21100000   300.9816      -587.71665      1299.3997      3403.19        0.70274148   
  21105000   298.42975     -592.74496      1366.1367      3442.0789     -9.0930398    
  21110000   304.15311     -564.11949      1274.6742      3430.4226      7.7565653    
  21115000   293.5148      -544.97786      1318.6093      3398.367      -1.5378841    
  21120000   310.55772     -530.17548      1322.4648      3569.4301     -0.36616998   
  21125000   298.65097     -521.6986       1266.3064      3415.2733      7.8408693    
  21130000   301.94723     -529.26898      1298.1932      3469.0662      5.5382375    
  21135000   298.41968     -597.74789      1262.2083      3333.0575      16.242582    
  21140000   305.12844     -561.25102      1270.5988      3437.9376      20.963332    
  21145000   301.59852     -579.06888      1293.1736      3411.1285      9.3798778    
  21150000   309.79332     -555.2495       1281.336       3496.3916      1.4609645    
  21155000   305.00146     -590.3514       1231.7823      3368.8852      5.0821935    
  21160000   304.56438     -564.57791      1266.3004      3425.2682      6.9980375    
  21165000   299.89205     -548.14098      1273.4493      3407.072       12.22228     
  21170000   293.54661     -538.35999      1266.1188      3352.7789     -1.5418877    
  21175000   298.68721     -551.01485      1253.5618      3373.5364      3.0166015    
  21180000   299.2437      -549.07365      1330.915       3457.8072     -0.55090738   
  21185000   298.49157     -534.30309      1278.3135      3413.2504      9.7485235    
  21190000   302.61258     -553.62926      1307.4176      3459.8802      9.0491093    
  21195000   296.54728     -508.61539      1301.3651      3444.603       7.6814897    
  21200000   301.11086     -524.85204      1277.2717      3445.0825      7.9441229    
  21205000   298.12216     -550.47744      1289.6574      3405.1166      9.8902913    
  21210000   298.82588     -552.89388      1266.9579      3386.2936      8.1973806    
  21215000   301.6977      -585.4197       1236.7005      3349.1914      8.3142345    
  21220000   306.04292     -553.2646       1242.2584      3425.7612      9.9294666    
  21225000   297.77058     -567.27104      1263.8476      3359.3692      7.1816917    
  21230000   299.49422     -582.27846      1227.1002      3323.0279      10.805402    
  21235000   293.44287     -583.26766      1239.9157      3280.7404      10.050485    
  21240000   307.45662     -558.53788      1299.1449      3490.0164      9.0362462    
  21245000   296.30495     -590.96343      1309.2519      3367.9748      4.2589593    
  21250000   299.64575     -563.57559      1283.7385      3399.7241      0.55113915   
  21255000   301.21464     -584.10455      1264.0656      3373.5519      1.6993508    
  21260000   300.42906     -594.20684      1274.6717      3367.0307      13.816189    
  21265000   301.56149     -595.69254      1275.0729      3376.0729      2.5693139    
  21270000   303.93331     -594.91181      1284.4834      3407.4739     -5.2914496    
  21275000   299.96681     -587.21141      1285.0123      3380.2331      8.7684287    
  21280000   306.86161     -576.86182      1318.1555      3485.3822      9.0404054    
  21285000   306.29674     -572.01238      1251.4955      3418.5203      13.588354    
  21290000   299.55897     -525.97309      1289.4534      3442.2655     -2.656995     
  21295000   297.20947     -530.12986      1258.5379      3386.183       4.5842012    
  21300000   301.97347     -560.94462      1302.4692      3441.9013      4.0267704    
  21305000   306.60095     -519.19077      1266.6544      3489.2211      9.4844127    
  21310000   301.13893     -548.48313      1283.1555      3427.5862      3.8017386    
  21315000   308.04877     -591.4508       1255.3467      3418.6005      16.948387    
  21320000   303.4321      -590.31892      1276.6789      3399.7803      17.464162    
  21325000   301.04605     -554.6872       1298.4582      3435.8543      1.4669802    
  21330000   305.7427      -582.70074      1305.2524      3456.6344      14.137535    
  21335000   299.05844     -594.41659      1267.181       3347.0736      5.2832131    
  21340000   302.12222     -595.8137       1292.4082      3398.3013      7.1121281    
  21345000   304.77167     -625.48058      1309.5211      3409.4399      9.98196      
  21350000   298.36258     -575.65438      1272.1632      3364.5954      1.8393684    
  21355000   300.9192      -576.19848      1280.7519      3395.5023      10.89811     
  21360000   299.23834     -589.34082      1238.67        3325.2471      12.313306    
  21365000   306.58756     -561.3956       1285.6741      3465.9164      18.56549     
  21370000   294.28427     -547.69594      1321.1594      3405.08       -4.0688141    
  21375000   292.91221     -551.90578      1231.7709      3299.2121      5.6609121    
  21380000   299.99448     -546.99252      1323.4553      3459.1424      2.9623306    
  21385000   300.36069     -562.76608      1313.2071      3436.3955      7.4065852    
  21390000   294.28258     -568.53285      1293.3697      3356.4383      4.6987862    
  21395000   301.88561     -580.05806      1321.4876      3441.0206      17.723567    
  21400000   301.8396      -596.03412      1295.5875      3398.733       8.109092     
  21405000   303.94563     -561.56703      1263.8467      3420.2922      14.913549    
  21410000   294.95126     -560.3338       1218.435       3295.6822      12.050973    
  21415000   299.96281     -573.45831      1243.7575      3352.6957      16.984421    
  21420000   300.20457     -569.22953      1282.9643      3398.2932      19.835697    
  21425000   297.16121     -565.54801      1271.0125      3362.8078      5.285557     
  21430000   300.04256     -535.53821      1282.5546      3430.126      -0.93751767   
  21435000   298.4832      -543.06197      1286.5286      3412.6318      2.9377815    
  21440000   298.94387     -563.59007      1250.4264      3360.1211      1.6559844    
  21445000   300.0417      -558.30789      1266.5077      3391.3018      16.345031    
  21450000   305.68365     -522.56038      1271.3631      3482.3573      0.96824365   
  21455000   291.57651     -548.25624      1261.6495      3320.7959      11.468529    
  21460000   299.95127     -537.10229      1312.1239      3457.3149      8.5750472    
  21465000   306.90122     -536.50543      1301.9013      3509.8385      7.1343818    
  21470000   293.44998     -562.03491      1312.1023      3374.2234      0.55941267   
  21475000   307.16255     -563.08509      1325.2167      3508.9113      4.8692755    
  21480000   307.9289      -575.13188      1311.4489      3489.9497      5.6083944    
  21485000   299.40989     -609.95565      1251.6693      3319.1657     -4.7296809    
  21490000   297.24137     -568.97093      1271.2517      3360.3409      9.6955       
  21495000   295.63143     -561.43213      1284.1598      3366.391       8.120403     
  21500000   302.57669     -571.49635      1227.3888      3361.6633      3.1207611    
  21505000   293.63489     -582.18549      1238.8253      3282.4493      16.063564    
  21510000   304.83689     -555.98975      1276.4287      3446.4215     -0.98349578   
  21515000   293.56297     -564.60457      1278.3902      3338.952       7.0438257    
  21520000   303.78275     -555.7653       1300.2169      3461.0076      11.475403    
  21525000   288.07697     -566.12894      1253.3565      3263.3357      2.5661175    
  21530000   298.46406     -590.57085      1235.7822      3314.2054      6.2193859    
  21535000   297.66347     -568.21584      1317.9993      3411.6183      3.0833421    
  21540000   300.19341     -580.25504      1294.069       3398.2725      10.272729    
  21545000   298.73922     -554.3175       1313.7239      3430.861      -5.2336291    
  21550000   303.06956     -592.15295      1336.0537      3454.0791     -1.9073962    
  21555000   297.66977     -614.03972      1260.4612      3308.3126      1.5783912    
  21560000   302.26816     -552.79129      1247.5767      3397.7973      9.2146264    
  21565000   303.81254     -568.13448      1322.2447      3470.9326      0.22298492   
  21570000   302.95408     -544.85134      1329.8205      3494.1149      6.9206816    
  21575000   294.39707     -558.43192      1276.8403      3351.0336      10.398644    
  21580000   300.23606     -526.79927      1252.5289      3410.5696      5.3562842    
  21585000   301.29087     -558.69743      1302.3959      3437.971       3.74353      
  21590000   301.10741     -548.12053      1280.4176      3424.929       12.879454    
  21595000   293.23657     -580.68132      1349.4457      3391.012      -2.9830844    
  21600000   302.32364     -543.87039      1311.6987      3471.3363      3.3813776    
  21605000   302.93937     -539.83557      1283.5273      3452.7059      9.5872531    
  21610000   296.55762     -530.95028      1290.2509      3411.2464     -3.8492342    
  21615000   295.1919      -552.4628       1301.165       3388.4351      6.8529455    
  21620000   299.84961     -547.74572      1291.4368      3425.0753      2.3632797    
  21625000   297.45708     -507.82749      1293.0759      3445.2375      7.1576479    
  21630000   307.23014     -516.75824      1327.8469      3558.4728      6.1117217    
  21635000   305.43543     -515.89375      1265.415       3480.8562      0.45830426   
  21640000   307.84004     -593.56607      1293.8397      3453.1117      6.1271331    
  21645000   300.90756     -589.03039      1312.9382      3414.7526      14.180295    
  21650000   293.44735     -585.69636      1331.8324      3370.2684      5.2901586    
  21655000   301.43442     -553.11404      1274.0866      3416.5288      9.5334095    
  21660000   299.35314     -503.41896      1306.6976      3480.2232     -11.19239     
  21665000   297.26748     -534.97422      1285.7698      3409.0893      7.4057082    
  21670000   299.37464     -553.14347      1263.0477      3387.041       7.2642196    
  21675000   294.46864     -554.39625      1313.1817      3392.0507      5.3688816    
  21680000   294.97069     -562.02812      1214.3059      3290.0326      9.8448791    
  21685000   303.49328     -580.7191       1239.3576      3372.606       6.2434732    
  21690000   296.5416      -581.90467      1233.5928      3303.4908      1.7343849    
  21695000   299.76196     -593.01643      1247.9888      3335.5728      5.9984782    
  21700000   298.13854     -616.07948      1244.2788      3294.2824      14.526711    
  21705000   294.48405     -610.52537      1256.7888      3279.6665      2.8814755    
  21710000   303.87869     -573.02856      1256.9301      3401.3155      0.062575457  
  21715000   294.65891     -627.33656      1291.2127      3298.8428     -0.82356283   
  21720000   302.65767     -621.01088      1226.7886      3312.2728      10.578559    
  21725000   296.77241     -584.1045       1333.2973      3403.0594     -1.2315927    
  21730000   310.44576     -592.75894      1309.1389      3492.5195      11.559613    
  21735000   301.27247     -585.21987      1262.5342      3371.4224     -2.1282533    
  21740000   304.47315     -604.03371      1225.1735      3343.8697      1.5885357    
  21745000   302.16897     -571.79141      1290.9169      3421.2504      6.2444195    
  21750000   293.41015     -526.95104      1311.8344      3408.6832     -4.4241691    
  21755000   300.74173     -551.5329       1263.4314      3401.2605      6.3412412    
  21760000   300.75792     -552.77292      1207.7136      3344.4474      12.826991    
  21765000   294.64932     -572.15678      1304.3208      3367.045       1.5235989    
  21770000   303.74939     -595.60972      1275.7164      3396.3644     -0.12425725   
  21775000   296.59838     -621.80759      1262.0136      3292.5163      4.9017595    
  21780000   288.63962     -625.05241      1250.4087      3206.4959      6.6155464    
  21785000   298.33513     -641.68064      1275.5839      3301.7443      5.1383475    
  21790000   301.97717     -623.99321      1285.2037      3361.6202      7.6463427    
  21795000   296.47103     -595.53579      1255.3243      3310.96        4.7578218    
  21800000   300.40859     -580.76615      1265.3258      3370.9425      11.572439    
  21805000   296.51389     -586.20948      1255.4394      3320.7847      5.3754065    
  21810000   302.69687     -618.43406      1235.451       3323.8626      11.113354    
  21815000   308.68247     -607.11713      1244.075       3397.3293      7.2657095    
  21820000   304.56725     -634.4286       1261.014       3350.1568      9.4018793    
  21825000   299.38844     -583.9505       1260.7725      3354.0822      15.297286    
  21830000   304.28966     -539.81486      1254.2312      3435.5054      6.3755603    
  21835000   299.5341      -600.79015      1288.729       3366.5017      5.4260007    
  21840000   297.33771     -565.06711      1273.3033      3367.1579      13.621755    
  21845000   289.79986     -579.1107       1268.7301      3281.1344      25.398495    
  21850000   296.37426     -549.0752       1303.0729      3404.3038     -0.62847077   
  21855000   303.39727     -571.60961      1223.9658      3365.4651      9.2938991    
  21860000   309.2435      -634.85488      1259.4292      3389.9627      8.8289715    
  21865000   303.03509     -610.26677      1286.6621      3386.2655      1.8453636    
  21870000   303.08975     -604.0933       1270.5209      3376.7865      3.3197474    
  21875000   298.50289     -589.61419      1259.7296      3339.4566      3.6227426    
  21880000   306.76905     -603.42498      1274.0133      3413.8492      21.346691    
  21885000   301.94912     -575.25951      1248.6251      3373.5245      1.4937144    
  21890000   297.38542     -569.03998      1271.5741      3361.8825      23.644967    
  21895000   299.81826     -578.21781      1298.6033      3401.4893     -1.6416031    
  21900000   301.72066     -543.49182      1278.6191      3433.2433      19.859189    
  21905000   301.243       -533.28266      1280.3301      3440.8919      14.145704    
  21910000   304.43849     -543.86742      1267.6845      3446.237       10.180437    
  21915000   303.78704     -526.73368      1265.8792      3455.74        9.6258825    
  21920000   299.1752      -538.05555      1281.9725      3419.2703      10.541968    
  21925000   305.95734     -560.05665      1295.7063      3471.6518      13.060979    
  21930000   292.78674     -557.36213      1293.2315      3354.0943      10.018965    
  21935000   295.67413     -550.69099      1254.6997      3348.0539      6.1084063    
  21940000   304.224       -561.03681      1253.8411      3413.3062      3.2731825    
  21945000   301.01735     -578.28542      1264.2174      3377.7586      7.2818711    
  21950000   306.50679     -589.55255      1245.5193      3396.8823      1.1776983    
  21955000   299.58467     -545.58392      1255.3315      3388.7625      9.0233345    
  21960000   299.66298     -600.3323       1278.3748      3357.7578      10.727632    
  21965000   299.74855     -592.74541      1266.8144      3354.5494      10.095955    
  21970000   307.98012     -598.94147      1271.302       3426.4513      5.9722114    
  21975000   296.11177     -534.82805      1287.4524      3400.5831     -4.7054827    
  21980000   297.22996     -564.95369      1293.5331      3386.5376      4.3496889    
  21985000   291.85678     -544.09183      1327.8298      3393.6468      4.9716812    
  21990000   300.96807     -561.8641       1279.4443      3408.9662     -4.9254292    
  21995000   297.75371     -555.38236      1261.847       3369.1065      10.479827    
  22000000   297.20786     -571.75851      1268.8697      3354.8717      0.17474911   
  22005000   298.33228     -548.01051      1246.2594      3366.0645      2.8855668    
  22010000   287.82543     -583.22612      1315.8586      3306.4913     -0.92786954   
  22015000   296.75216     -580.32174      1259.5564      3332.92        8.8977897    
  22020000   296.68366     -549.21019      1260.4195      3364.2823      3.6064845    
  22025000   302.66507     -557.7282       1301.8635      3450.6966     -10.139799    
  22030000   299.24268     -544.57503      1246.6101      3377.9919      7.544127     
  22035000   302.76912     -545.70899      1289.907       3451.6898      1.1508317    
  22040000   303.81918     -550.60961      1235.6877      3401.9599      11.390716    
  22045000   292.90154     -534.05176      1247.2083      3332.4081      4.2468606    
  22050000   289.26069     -570.89816      1276.0723      3291.8677     -4.0134165    
  22055000   301.74915     -579.39703      1290.536       3409.5096      18.313221    
  22060000   299.64521     -618.00215      1317.224       3378.7782      12.463266    
  22065000   304.45367     -582.61515      1244.3889      3384.3295      9.4228654    
  22070000   298.18274     -574.31726      1291.4877      3383.6488      7.6098345    
  22075000   290.28223     -543.00993      1300.0528      3352.8714      4.0516899    
  22080000   297.08909     -569.02156      1282.6489      3370.3258      13.594767    
  22085000   303.56078     -589.02851      1310.6394      3436.1819      4.8907036    
  22090000   298.01598     -581.98178      1241.8348      3324.8401      8.3520365    
  22095000   288.96677     -577.01318      1265.0255      3272.0775      2.8969223    
  22100000   301.1953      -579.17334      1277.3379      3391.5824      7.9851034    
  22105000   307.86772     -565.40213      1279.1891      3466.8726      10.385267    
  22110000   302.9918      -580.5817       1266.1958      3395.0971      7.5439819    
  22115000   301.77686     -591.02228      1302.233       3409.8292     -8.2245841    
  22120000   299.08732     -554.06813      1327.1474      3447.6467      8.3150827    
  22125000   304.27807     -621.96482      1269.9656      3368.9861      3.7645912    
  22130000   305.30925     -631.02039      1267.4454      3366.6316      2.2261296    
  22135000   296.90586     -572.79267      1331.5641      3413.8313     -3.7000196    
  22140000   306.69267     -591.28136      1283.9424      3435.2388      12.701565    
  22145000   292.25366     -589.64795      1251.812       3275.6219     -2.8591125    
  22150000   305.31576     -611.43636      1326.928       3445.7564      3.304513     
  22155000   297.75474     -594.41225      1255.4222      3323.6609      0.54307605   
  22160000   301.87765     -565.9611       1292.5806      3426.1393      4.68422      
  22165000   298.02764     -560.42516      1333.8138      3438.48        5.9702679    
  22170000   301.26126     -540.29008      1265.5779      3419.2956      8.6968644    
  22175000   299.07459     -577.04491      1276.4072      3373.816       9.1388075    
  22180000   304.49594     -546.6737       1284.6796      3460.9396      3.9366576    
  22185000   302.01675     -534.47809      1289.3113      3455.5968      6.6829983    
  22190000   299.65532     -516.77623      1307.8441      3470.7147      7.4765907    
  22195000   300.49469     -541.67006      1282.6819      3428.1646      2.5253065    
  22200000   304.70493     -557.31787      1254.2975      3421.7822     -10.806115    
  22205000   290.42166     -578.59539      1287.3047      3305.7847      6.9875399    
  22210000   296.58469     -529.61994      1251.7954      3374.3633      11.095611    
  22215000   304.70055     -568.79508      1265.1949      3421.1632      12.934315    
  22220000   300.41527     -533.88419      1331.7865      3484.3449     -0.95082115   
  22225000   303.37069     -543.31003      1265.2408      3434.802       12.190702    
  22230000   302.28145     -543.00334      1290.8953      3451.0227      7.4201053    
  22235000   295.25483     -557.12461      1285.3233      3368.4944     -1.5203986    
  22240000   297.30905     -553.93892      1272.5851      3377.3115      5.6629844    
  22245000   299.06557     -552.5665       1244.9789      3366.7853     -0.80631628   
  22250000   291.43489     -589.5973       1273.1369      3289.6758      4.0006065    
  22255000   297.05423     -609.13276      1300.5072      3347.7612      6.8168744    
  22260000   304.81192     -588.44238      1279.1234      3416.4403      6.3803483    
  22265000   302.27767     -593.29506      1270.2869      3380.0888      4.5256115    
  22270000   298.5464      -596.07611      1278.0442      3351.6985      6.6461656    
  22275000   308.87461     -588.79906      1333.6639      3506.9544      4.5792759    
  22280000   294.81545     -630.81613      1223.1163      3228.6667     -0.39693932   
  22285000   302.94584     -569.91778      1273.965       3413.1192      2.1422349    
  22290000   305.06729     -562.45008      1250.6287      3416.2216      14.846957    
  22295000   294.23419     -602.76052      1287.4736      3315.8817      6.5920812    
  22300000   300.5339      -613.36081      1300.9932      3375.1358     -10.842744    
  22305000   306.03361     -569.85191      1267.5045      3434.3368      9.0708428    
  22310000   302.68757     -573.5029       1297.6938      3430.9534      15.949631    
  22315000   291.62542     -572.59004      1309.8819      3345.1318     -0.88626048   
  22320000   293.69836     -567.96122      1271.3129      3329.7287      4.837303     
  22325000   299.01133     -542.862        1261.9523      3392.9782      2.3247784    
  22330000   306.45689     -555.27079      1292.3634      3477.5619     -0.5404086    
  22335000   301.62154     -544.15335      1277.5093      3430.5856      7.9667413    
  22340000   309.12643     -541.71832      1266.4784      3489.1016      7.1120534    
  22345000   298.13912     -525.83769      1295.4267      3435.6773      2.7873931    
  22350000   292.91092     -594.56183      1255.3743      3280.1479      10.309908    
  22355000   301.65504     -616.01013      1290.608       3372.127       4.6887298    
  22360000   302.38944     -618.54911      1308.6221      3394.1694     -2.8887519    
  22365000   298.97488     -617.61223      1267.0986      3323.0483      4.9030244    
  22370000   296.43115     -582.31195      1317.2322      3385.7351      13.222898    
  22375000   298.7782      -638.91626      1289.3742      3322.2612     -1.0372154    
  22380000   300.00432     -619.48019      1256.2904      3319.5779     -0.34318917   
  22385000   299.16398     -656.8502       1265.8067      3284.2095     -0.26101787   
  22390000   296.33818     -620.5022       1254.0117      3283.493      -2.4365774    
  22395000   300.83438     -616.2891       1243.5913      3317.4926     -1.2059037    
  22400000   298.00245     -612.6757       1253.1756      3305.366       8.1044486    
  22405000   304.27868     -590.74115      1232.9343      3363.1839      2.9818156    
  22410000   306.17804     -600.62349      1299.2963      3436.6485      1.8266136    
  22415000   297.88148     -619.17284      1288.4971      3333.1086      7.5084       
  22420000   309.22365     -561.93727      1276.4044      3479.678      -6.1732184    
  22425000   298.15164     -573.38274      1281.8116      3374.6291      1.9494186    
  22430000   295.92466     -628.10631      1270.0876      3288.2668      4.049726     
  22435000   302.56953     -616.51284      1270.2499      3359.4439      11.389161    
  22440000   293.74196     -594.17697      1278.6749      3311.2649      1.2175076    
  22445000   297.23145     -564.5671       1281.7413      3375.1456      0.35343314   
  22450000   301.35759     -589.20558      1277.1057      3382.7693     -0.85903828   
  22455000   301.44507     -570.50422      1261.5731      3386.7203      6.0603825    
  22460000   302.05106     -563.94361      1277.1755      3414.3023      3.96317      
  22465000   296.63638     -583.96293      1313.9209      3382.6081      16.198815    
  22470000   294.16449     -558.31201      1280.3116      3352.545       4.402128     
  22475000   307.4343      -569.69884      1273.6578      3453.1687      7.9261016    
  22480000   299.73501     -558.32876      1295.8543      3417.8849      10.204038    
  22485000   303.23286     -574.36148      1301.8101      3439.0873      4.5591289    
  22490000   299.70091     -566.67415      1251.0058      3364.3862      18.441906    
  22495000   301.48464     -544.25138      1294.6853      3446.4392      1.0785705    
  22500000   307.47941     -527.38249      1297.7803      3520.011       9.2488082    
  22505000   298.33029     -558.17079      1285.9972      3395.6243     -1.495648     
  22510000   293.26031     -543.63675      1293.2648      3372.0878      8.1925222    
  22515000   302.56184     -510.18438      1262.1094      3457.5631      10.002678    
  22520000   300.19795     -577.59995      1276.521       3383.4203      4.5194597    
  22525000   294.74278     -540.7497       1285.4688      3380.4358      5.0191609    
  22530000   294.95338     -600.82567      1205.4372      3242.2116      5.7238559    
  22535000   299.05754     -608.06491      1212.7851      3279.0214      6.4739925    
  22540000   300.16997     -622.14935      1233.8146      3295.9142      14.556956    
  22545000   309.96657     -592.92812      1314.7273      3493.6536      1.2970004    
  22550000   298.6553      -582.83062      1301.9993      3389.8728      7.1712794    
  22555000   309.07409     -598.74912      1275.2043      3440.3286      0.91316506   
  22560000   304.6536      -600.81116      1268.9327      3392.4651      7.7621067    
  22565000   308.33066     -606.06383      1331.3982      3482.5598      12.564216    
  22570000   302.42979     -592.31947      1228.6381      3340.7759      15.523004    
  22575000   297.85965     -553.29158      1281.8687      3392.1662      11.127144    
  22580000   298.58326     -545.7584       1288.3415      3412.643       9.2158762    
  22585000   300.38456     -549.95178      1309.4371      3445.6533      12.206618    
  22590000   306.4037      -561.54765      1288.032       3466.478       12.626617    
  22595000   294.47182     -575.66404      1318.9822      3376.6118      6.7278914    
  22600000   300.37667     -616.35695      1281.9428      3351.6832      13.4014      
  22605000   294.21551     -578.63127      1237.9203      3290.2907      2.4254615    
  22610000   305.98106     -581.13749      1340.7392      3495.8159      2.7266163    
  22615000   304.95678     -612.82349      1253.2178      3367.449       4.5461094    
  22620000   299.83913     -591.19987      1335.3559      3425.4465      4.7049087    
  22625000   304.12986     -575.30145      1272.2402      3416.5987      6.4416601    
  22630000   296.23769     -574.99468      1234.3177      3308.4079      6.3553679    
  22635000   297.69336     -550.82002      1262.734       3374.0161     -0.14759195   
  22640000   299.32225     -584.76681      1229.4016      3321.303       5.3063662    
  22645000   307.13327     -607.29389      1318.4643      3457.6882      13.854331    
  22650000   300.50266     -576.57792      1263.684       3374.3301      11.452177    
  22655000   299.72609     -549.24591      1328.9465      3459.9803      1.1189071    
  22660000   301.01552     -561.93699      1258.8961      3388.7694      16.5999      
  22665000   294.61854     -612.35726      1305.8272      3328.0757      18.4056      
  22670000   304.74372     -557.00173      1267.0292      3435.1768      0.25409233   
  22675000   301.4559      -565.43246      1307.8632      3438.1791      12.100398    
  22680000   300.03057     -593.852        1283.6935      3372.844       4.3185408    
  22685000   286.61201     -565.96675      1226.6371      3223.6783      0.72891616   
  22690000   309.72812     -552.10549      1277.2849      3494.9015      6.9724483    
  22695000   300.28626     -565.65912      1306.8092      3426.439       6.1596508    
  22700000   298.14968     -575.85216      1327.9047      3418.2352      11.306824    
  22705000   300.13638     -566.99069      1264.7613      3381.7192      9.0635875    
  22710000   299.7001      -567.7433       1241.1944      3353.4983     -2.66766      
  22715000   302.23138     -532.053        1250.9282      3421.5582      3.1997226    
  22720000   303.73798     -592.98692      1291.6161      3414.7849      12.486136    
  22725000   304.29825     -598.60725      1217.8683      3340.427       15.855166    
  22730000   297.29663     -606.08151      1294.4958      3346.9687      6.1310089    
  22735000   302.43017     -606.20134      1297.2371      3395.4964      18.409981    
  22740000   303.9274      -623.38227      1317.0779      3411.5452     -1.1056264    
  22745000   301.8893      -648.54101      1260.6826      3311.7655      1.4628537    
  22750000   300.16389     -629.77341      1236.509       3290.9302      16.982767    
  22755000   305.04541     -585.96801      1243.1906      3385.0698      0.5223687    
  22760000   306.16896     -601.05508      1244.9589      3381.7983      15.412378    
  22765000   310.40303     -590.14937      1251.1348      3436.7429      3.6838596    
  22770000   292.14432     -601.44492      1306.5135      3317.5488      11.83323     
  22775000   303.02067     -638.6223       1295.6282      3366.747      -6.58413      
  22780000   299.42341     -607.45702      1303.0314      3373.1473      1.8672501    
  22785000   291.42245     -611.1618       1342.0561      3336.9191      9.2072407    
  22790000   296.32121     -580.03394      1273.5489      3343.3467      4.315942     
  22795000   298.3467      -590.05176      1251.9978      3329.8906     -1.2208681    
  22800000   300.00732     -626.89737      1270.0332      3325.9303      17.511657    
  22805000   304.05167     -595.47638      1316.5358      3440.0202      5.4526029    
  22810000   295.45996     -590.84569      1247.3446      3298.6289     -1.8118053    
  22815000   303.86482     -593.86036      1279.6137      3403.0432      4.6767812    
  22820000   299.005       -633.45617      1238.8654      3279.2406     -4.0281559    
  22825000   303.19603     -573.43669      1322.1445      3460.0171      16.032348    
  22830000   296.45007     -579.51143      1254.7963      3326.269       5.4966312    
  22835000   298.83662     -603.59262      1285.961       3354.6939      4.151952     
  22840000   304.60559     -590.45745      1252.3786      3385.8354      25.377678    
  22845000   293.92393     -566.46991      1304.6694      3366.5938      2.3349556    
  22850000   301.17015     -595.45605      1266.0651      3363.8021      10.962764    
  22855000   301.71252     -598.521        1286.1594      3385.6815     -2.7573068    
  22860000   300.36826     -601.24536      1259.5796      3344.3564      7.76566      
  22865000   284.65079     -589.29647      1303.072       3259.2453      2.4038862    
  22870000   297.53438     -599.42772      1279.7753      3341.0281     -3.5058163    
  22875000   302.71204     -597.49187      1279.5358      3389.0252      3.689153     
  22880000   300.82958     -612.72553      1317.3546      3394.7766     -1.2265651    
  22885000   299.687       -581.12629      1294.6219      3393.4257      6.8262593    
  22890000   293.76309     -558.53288      1308.8354      3377.2585      0.42318869   
  22895000   302.63059     -557.34354      1347.5737      3496.4831     -4.5346301    
  22900000   300.7001      -549.93171      1287.2821      3426.34        7.5450916    
  22905000   294.87937     -569.8138       1272.9963      3340.1206     -0.28854996   
  22910000   307.83253     -564.24113      1293.5584      3482.0882      9.1868396    
  22915000   302.13355     -550.46598      1252.1449      3403.4871      5.1068815    
  22920000   303.40393     -607.00997      1276.0759      3382.2343      11.656273    
  22925000   305.70249     -568.23801      1260.649       3426.1341      0.63849316   
  22930000   306.42539     -555.412        1240.9055      3425.6811      20.108591    
  22935000   299.22535     -547.2402       1272.4687      3401.0303     -4.026201     
  22940000   301.54706     -561.7247       1249.1475      3383.9864      13.847508    
  22945000   303.64468     -547.85742      1299.6613      3467.1252      10.530325    
  22950000   305.12929     -552.94426      1267.2056      3442.8588      9.859067     
  22955000   299.74699     -560.4759       1245.1605      3365.1511     -4.8044724    
  22960000   299.16482     -568.97009      1309.6582      3415.9486     -1.6250193    
  22965000   303.65611     -572.79495      1269.8657      3412.4942      5.2606313    
  22970000   303.38505     -553.02371      1253.5884      3413.5643      0.42268819   
  22975000   300.14611     -576.17958      1257.9167      3365.7727      8.7771856    
  22980000   293.55013     -558.5395       1257.2925      3323.8045      12.929195    
  22985000   304.08976     -582.64677      1268.0593      3404.714       3.6620658    
  22990000   290.42193     -595.43627      1292.4459      3294.0875      1.9901176    
  22995000   302.6928      -601.18048      1297.7547      3403.3834      8.1294586    
  23000000   300.47049     -588.38917      1285.889       3384.4362      3.7048767    
  23005000   298.24173     -593.30314      1252.6921      3326.3948      5.7070171    
  23010000   305.78382     -590.58027      1316.8344      3460.7046     -1.1072036    
  23015000   295.32209     -578.29483      1281.3248      3343.9272      3.6996131    
  23020000   298.77297     -536.22706      1286.7531      3422.2825      5.2670383    
  23025000   301.91657     -543.44889      1265.9839      3422.4029     -0.28154568   
  23030000   307.7437      -548.47261      1248.2315      3451.7355      6.9197595    
  23035000   299.49483     -567.45106      1279.7715      3390.532       5.6301171    
  23040000   296.23144     -575.2548       1300.1556      3373.9297     -11.680901    
  23045000   304.75194     -553.47206      1258.9722      3430.723       7.1438596    
  23050000   295.99117     -581.34544      1301.5845      3367.1194      10.88275     
  23055000   298.51967     -596.70283      1259.1162      3331.9048      10.581421    
  23060000   288.84133     -569.04817      1258.1179      3272.0131      18.773051    
  23065000   307.18922     -559.22354      1265.2069      3453.0015     -6.7304206    
  23070000   304.11317     -562.23621      1288.7397      3446.0143      0.20274393   
  23075000   301.66887     -605.64549      1257.0221      3349.0294      4.8094586    
  23080000   295.61709     -539.04124      1335.7163      3440.2102      10.611533    
  23085000   305.53284     -594.57298      1267.8244      3405.4575      4.113409     
  23090000   297.69674     -576.79454      1295.519       3380.8568      5.1110739    
  23095000   300.90692     -599.60852      1238.4553      3329.6858      8.0319418    
  23100000   304.87611     -591.87378      1267.0494      3401.509      -0.73298023   
  23105000   299.73044     -592.89968      1278.4745      3365.8933      9.9537303    
  23110000   297.75317     -602.16788      1244.7888      3305.2578      12.863404    
  23115000   292.87169     -579.65854      1230.7187      3270.0448      2.3311331    
  23120000   304.2782      -616.697        1292.9894      3397.2789      9.0710566    
  23125000   295.03313     -553.80975      1228.3306      3312.8339      11.389584    
  23130000   304.57772     -531.12651      1246.3514      3438.8898      6.3176443    
  23135000   292.65594     -501.80754      1303.141       3418.3888      3.7165939    
  23140000   298.99421     -523.81963      1280.8288      3430.7439     -1.5092819    
  23145000   301.97135     -542.278        1255.1686      3413.2484      0.10797824   
  23150000   300.53972     -544.67661      1290.918       3433.7968      8.3339268    
  23155000   302.64059     -567.17172      1294.5975      3433.7682      0.49912531   
  23160000   305.42454     -622.54346      1249.1755      3357.8696      15.514213    
  23165000   302.64087     -585.34692      1234.3801      3355.3781      13.394597    
  23170000   301.30436     -544.1449       1299.9185      3450.1669     -1.7766017    
  23175000   298.59569     -570.58515      1275.6459      3375.2318     -1.5574769    
  23180000   292.36535     -566.11185      1228.185       3276.5299      7.3189716    
  23185000   290.26107     -592.6197       1271.4938      3274.5134      5.2294169    
  23190000   306.43891     -580.65478      1261.5651      3421.2189      6.5278818    
  23195000   303.88894     -574.37566      1295.6545      3438.7844     -2.7848671    
  23200000   292.99527     -596.21823      1211.2055      3235.077       6.6965602    
  23205000   298.76354     -533.43095      1294.5261      3432.7672      7.0285535    
  23210000   299.89309     -555.99823      1229.9894      3355.7642     -1.7191571    
  23215000   295.25971     -540.13328      1296.6795      3396.8856      12.436127    
  23220000   295.43615     -532.89842      1243.4323      3352.451       18.989431    
  23225000   294.57842     -550.19402      1328.3597      3412.4126      8.6794708    
  23230000   298.46633     -569.11523      1291.7803      3391.6794      17.13288     
  23235000   301.28349     -586.79308      1296.3589      3403.7724      7.5317723    
  23240000   304.39774     -576.08196      1291.1142      3437.0878      14.731045    
  23245000   302.42106     -568.94411      1303.277       3438.712       7.5609712    
  23250000   293.97112     -569.16533      1303.1255      3362.7763      6.9049985    
  23255000   306.58565     -591.4857       1237.6068      3387.7418      5.5739625    
  23260000   294.42969     -532.47728      1267.4898      3367.9294      10.086475    
  23265000   306.76909     -559.18593      1240.9759      3425.0511      8.6320217    
  23270000   301.64361     -575.35006      1301.9515      3424.0284      3.7934314    
  23275000   299.38751     -544.7136       1286.336       3418.8743      8.4176342    
  23280000   300.23793     -527.2136       1260.0529      3417.696       8.6237902    
  23285000   300.57526     -533.79713      1297.0272      3451.1033     -7.0004727    
  23290000   301.37718     -528.35561      1267.5267      3434.2155      5.0563859    
  23295000   301.06901     -537.35929      1296.2285      3451.1578      2.5019632    
  23300000   299.38844     -522.3447       1283.3336      3438.2491     -3.0695172    
  23305000   299.10453     -513.97174      1310.5166      3471.2662      11.616344    
  23310000   289.26542     -547.73737      1286.2106      3325.209      -3.7087789    
  23315000   293.91306     -540.30826      1258.6822      3346.6709      9.2763076    
  23320000   305.86436     -533.19221      1289.0151      3490.9936      9.995102     
  23325000   293.35126     -550.4163       1241.911       3314.7678      1.2596652    
  23330000   300.71361     -544.0233       1266.0061      3411.0933      3.0853918    
  23335000   298.33399     -569.99504      1297.5658      3395.4016      6.1992293    
  23340000   303.41625     -574.32363      1272.9939      3411.9488      6.9255956    
  23345000   310.22536     -558.51223      1302.5151      3518.1715     -3.2380616    
  23350000   293.93954     -582.71708      1274.7379      3320.5546      8.1594968    
  23355000   304.92254     -573.31296      1258.4125      3411.8481      7.4847243    
  23360000   293.51239     -591.70065      1299.2042      3332.2176      13.850123    
  23365000   302.05086     -587.44917      1266.7484      3380.3679      3.4932109    
  23370000   302.0305      -585.4518       1243.3573      3358.7921      5.7682482    
  23375000   297.1395      -587.04874      1313.2444      3383.3449      13.470934    
  23380000   295.87964     -548.45431      1270.3398      3367.7685     -1.0978523    
  23385000   301.78927     -546.0121       1280.7648      3433.4822      1.3010307    
  23390000   304.26672     -549.33213      1267.8431      3439.3949      8.6758872    
  23395000   294.92562     -550.97747      1289.9544      3376.3287      5.5440087    
  23400000   291.91813     -570.07398      1301.0402      3341.4237      3.6767035    
  23405000   293.33111     -552.03501      1289.1039      3360.1619      10.370273    
  23410000   299.31638     -562.67828      1305.0914      3419.0289      2.4582786    
  23415000   305.12702     -558.84615      1281.0448      3450.7757      1.2222497    
  23420000   310.69798     -589.92829      1289.2713      3477.7381      12.718494    
  23425000   304.65661     -570.26273      1247.5768      3401.6846      1.4736484    
  23430000   304.37519     -588.79379      1315.9604      3449.0205      4.2573       
  23435000   303.25122     -570.21881      1271.5767      3413.1607      7.4012752    
  23440000   296.9212      -612.52211      1289.1318      3331.8068     -0.20281185   
  23445000   299.61562     -573.95216      1280.4029      3385.7426      4.3513503    
  23450000   298.52067     -573.09711      1282.6606      3379.0637      4.6284696    
  23455000   308.35251     -585.0479       1308.2418      3480.6147     -2.1412351    
  23460000   303.43976     -609.60021      1306.6472      3410.5358      9.9063012    
  23465000   301.83203     -592.50841      1282.6126      3389.2161      9.9287464    
  23470000   302.91555     -599.42936      1316.9362      3426.308       4.9017141    
  23475000   297.04544     -615.13952      1335.9485      3377.1171      16.234263    
  23480000   299.25055     -585.57848      1279.9314      3370.3801      5.9442698    
  23485000   294.5817      -596.76123      1307.9256      3345.4406     -3.5363523    
  23490000   303.27172     -556.92392      1227.8188      3382.8811      22.285089    
  23495000   294.81651     -553.03505      1283.6458      3366.9868      9.2442495    
  23500000   304.28881     -556.3368       1280.7799      3445.5245     -3.6609484    
  23505000   299.19602     -554.6512       1256.5719      3377.4602     -4.3493734    
  23510000   294.89996     -579.84585      1267.7515      3325.0279      4.4589893    
  23515000   298.56892     -541.98305      1248.6665      3376.6152      13.044004    
  23520000   306.09709     -541.44827      1282.4039      3478.2074      16.656414    
  23525000   301.34293     -596.59172      1271.5443      3369.6907      6.53609      
  23530000   296.98827     -587.8547       1258.0164      3325.9586      9.1178626    
  23535000   294.34559     -580.96307      1335.8495      3387.0513      7.7588985    
  23540000   302.98519     -564.09963      1251.0344      3396.3586      6.8287713    
  23545000   301.80831     -577.99034      1311.2631      3432.1724      0.9130655    
  23550000   301.06481     -532.79481      1267.5301      3426.9863     -0.036144178  
  23555000   300.8097      -571.99769      1260.3793      3378.3513      4.3726552    
  23560000   302.28044     -593.49025      1332.2812      3441.9126      13.321522    
  23565000   299.42089     -569.59968      1278.1045      3386.0552      3.5737316    
  23570000   305.87754     -549.34103      1323.6488      3509.5963      7.0542051    
  23575000   305.49986     -531.37357      1323.1276      3523.6652      7.2238358    
  23580000   300.89383     -548.58914      1286.198       3428.3309      2.9117624    
  23585000   295.77475     -529.23951      1300.4053      3416.1109      1.6876847    
  23590000   295.67511     -536.12282      1235.068       3342.9992     -3.5604116    
  23595000   295.94896     -537.11397      1317.1698      3426.5588     -2.0405981    
  23600000   297.35965     -536.34914      1239.7775      3362.5463      16.247693    
  23605000   296.728       -560.42541      1253.9458      3346.9899      14.624322    
  23610000   298.6164      -576.59027      1275.1406      3368.9066      5.3057854    
  23615000   303.25818     -590.54833      1269.4223      3390.7391      0.98856592   
  23620000   304.28962     -560.95462      1276.0066      3436.1406      16.2363      
  23625000   296.85234     -527.83605      1221.1484      3347.8937      6.3914999    
  23630000   298.03908     -558.28379      1245.8184      3352.7283      10.394396    
  23635000   300.86753     -535.48444      1333.1177      3488.1201      1.3667741    
  23640000   294.82919     -528.14012      1304.7668      3413.1161      15.034778    
  23645000   293.84885     -571.82313      1278.3029      3334.2026      5.5934497    
  23650000   305.74133     -583.48368      1256.9936      3407.5804      11.690643    
  23655000   305.68566     -581.8025       1289.061       3440.8312      5.5212589    
  23660000   304.82064     -589.33458      1237.4005      3373.9032      8.2271654    
  23665000   301.78671     -607.85752      1229.423       3320.2721     -0.71602333   
  23670000   304.64548     -560.24262      1316.2462      3480.2745      10.789034    
  23675000   297.29873     -522.0721       1325.812       3462.313       8.8600721    
  23680000   305.45691     -559.32319      1297.315       3469.5189      6.4101711    
  23685000   298.68247     -554.37218      1285.7598      3402.3347      7.6028554    
  23690000   301.69929     -544.69257      1299.6921      3452.9244      6.7694742    
  23695000   307.09113     -613.94052      1284.5793      3416.7798      14.933058    
  23700000   303.89257     -586.02664      1291.8717      3423.3831      6.2167968    
  23705000   303.50284     -584.3426       1336.0394      3465.7497      12.777662    
  23710000   302.70366     -545.18913      1307.7157      3469.4329      6.0580333    
  23715000   295.67929     -569.26411      1273.827       3348.6543      2.7057393    
  23720000   306.10247     -612.3294       1297.4322      3422.4028      0.62341113   
  23725000   303.06096     -592.49481      1283.7021      3401.3087      3.6171507    
  23730000   303.6045      -611.51188      1239.5259      3342.9761      10.739516    
  23735000   290.87218     -589.61044      1288.072       3299.5657     -0.68316856   
  23740000   293.67206     -557.53072      1249.6655      3318.2766      3.4370934    
  23745000   304.02769     -555.13686      1289.9828      3453.5923      12.760035    
  23750000   303.89759     -522.38871      1310.2058      3505.4001      9.6511193    
  23755000   299.60463     -534.34223      1263.5299      3408.3811      14.947938    
  23760000   300.63179     -570.59971      1306.0731      3423.8521      21.430766    
  23765000   299.64702     -595.57423      1293.2949      3377.2932      1.074763     
  23770000   292.18516     -616.66144      1236.2878      3232.4717     -1.5123474    
  23775000   306.22753     -627.91887      1337.0474      3447.5468      8.4614182    
  23780000   292.90084     -617.99765      1297.9515      3299.1992      2.8149954    
  23785000   298.5167      -623.71828      1322.1537      3367.9002      4.185105     
  23790000   298.99408     -599.13083      1252.1118      3326.7147      21.103096    
  23795000   297.63305     -595.08819      1220.9548      3287.4294      17.91469     
  23800000   300.11007     -593.05418      1320.7042      3411.3634      14.422096    
  23805000   296.94326     -615.72854      1318.4165      3358.0823      9.0730966    
  23810000   298.55986     -597.64664      1276.5524      3348.7564      3.0694678    
  23815000   290.6971      -603.89925      1246.029       3241.6683      5.9247243    
  23820000   303.64336     -598.52158      1228.3703      3345.1582      3.4769695    
  23825000   296.21267     -595.43826      1217.925       3271.3479      3.2579536    
  23830000   297.20448     -632.33467      1285.5974      3310.993       3.1847929    
  23835000   299.52133     -595.58519      1296.402       3379.2654      15.263634    
  23840000   304.33128     -609.90074      1219.2642      3330.8247      13.965178    
  23845000   296.79057     -570.36023      1332.3047      3415.9734     -2.9355455    
  23850000   297.02696     -559.23432      1270.2396      3367.1481     -0.23026258   
  23855000   297.45866     -592.33358      1286.2502      3353.9199      12.944268    
  23860000   297.00992     -575.52         1253.289       3333.7595      0.10643808   
  23865000   303.06021     -594.38328      1241.9361      3357.6475      19.225619    
  23870000   301.04063     -549.7565       1243.4942      3385.7725      11.918006    
  23875000   301.40261     -567.2018       1262.6402      3390.7102      4.0260685    
  23880000   299.0114      -574.02368      1287.0276      3386.8925      12.45844     
  23885000   298.10537     -597.04978      1291.1639      3359.9006      8.8017897    
  23890000   293.99511     -560.14358      1211.1893      3280.0764      5.6709113    
  23895000   298.66922     -554.50412      1259.0014      3375.3259      10.122572    
  23900000   301.27214     -587.29785      1310.4491      3417.2563      1.2323079    
  23905000   297.25063     -587.82746      1269.7887      3340.1042      14.719668    
  23910000   293.84986     -588.55074      1330.7915      3369.9725      1.9511026    
  23915000   301.31023     -588.74063      1282.9206      3388.6256      7.7608837    
  23920000   300.91684     -579.69274      1219.6328      3330.8679      9.1744222    
  23925000   298.36708     -557.48141      1296.2011      3406.8465     -2.7237221    
  23930000   299.12785     -552.45634      1293.1025      3415.5761      13.13914     
  23935000   306.99325     -541.13814      1294.1188      3498.2464      10.657317    
  23940000   295.45974     -563.17993      1245.3946      3324.3427      4.8216947    
  23945000   300.17397     -566.79725      1284.219       3401.7065      1.9751874    
  23950000   298.4519      -502.05211      1217.0687      3383.9019      8.6959232    
  23955000   303.2449      -515.20954      1262.0872      3458.624       12.000705    
  23960000   298.14633     -541.86016      1275.8522      3400.1447      4.9071971    
  23965000   301.58728     -557.85487      1260.2752      3399.3435      8.3316839    
  23970000   301.11824     -544.86413      1277.0726      3424.9373      5.7399425    
  23975000   301.08288     -545.36036      1261.1107      3408.163       15.307941    
  23980000   297.214       -580.44413      1271.1656      3348.5369      8.9401505    
  23985000   295.18487     -598.75553      1306.8989      3347.8135      3.8853485    
  23990000   296.56633     -552.04006      1253.975       3353.9587      6.8616601    
  23995000   302.56745     -523.87308      1268.6529      3450.468      -2.863811     
  24000000   301.87727     -548.10701      1285.0084      3436.4177      2.9082867    
  24005000   303.43388     -585.76285      1271.0926      3398.7661      8.5149293    
  24010000   296.99822     -607.41464      1282.6191      3331.0903      4.7135709    
  24015000   304.43554     -599.96845      1254.4725      3376.8976      3.9282216    
  24020000   298.98402     -576.65068      1271.9272      3368.9202     -0.88897666   
  24025000   292.11959     -573.8795       1254.7547      3293.1343      4.6811592    
  24030000   305.6018      -604.13962      1296.4627      3425.1459      17.999931    
  24035000   302.82689     -633.86204      1259.2294      3333.3757      8.1768523    
  24040000   300.33864     -549.32883      1281.6348      3418.0633      6.8953865    
  24045000   301.30255     -558.2113       1246.6354      3382.8012      15.252456    
  24050000   293.97396     -564.23734      1314.7753      3379.3795      13.209728    
  24055000   292.96683     -574.41162      1300.5487      3345.9726      1.0782711    
  24060000   295.51651     -579.06876      1251.6707      3315.2377      8.3899405    
  24065000   303.09542     -572.86783      1281.0093      3418.5511      4.8274743    
  24070000   295.07985     -585.886        1257.3984      3310.2433     -0.82216179   
  24075000   301.2923      -564.56576      1256.0847      3385.8043      2.882376     
  24080000   300.55864     -545.93973      1313.1385      3454.9235      6.2236029    
  24085000   294.09154     -582.7136       1254.646       3301.8255      3.7031615    
  24090000   301.28302     -561.29634      1306.6563      3439.5623      3.0215305    
  24095000   297.74153     -582.21828      1305.7732      3386.0878      11.256762    
  24100000   300.03069     -557.02145      1310.1008      3436.0829     -3.1329546    
  24105000   296.32762     -574.45059      1286.9139      3362.3524     -4.0821066    
  24110000   295.57159     -609.74867      1289.2695      3322.6491      13.857704    
  24115000   288.15306     -594.9334       1293.7171      3275.5724      7.370126     
  24120000   305.0386      -595.9697       1276.4083      3408.2249      0.19166064   
  24125000   285.16694     -566.37656      1290.3154      3274.0244      1.8415995    
  24130000   301.58104     -560.37906      1273.9901      3410.4784      12.919622    
  24135000   305.01198     -584.73443      1284.0334      3426.8473      22.373061    
  24140000   308.19225     -566.46561      1270.2899      3459.812       13.892499    
  24145000   303.75644     -575.58533      1288.0498      3428.7852      10.017557    
  24150000   302.57991     -580.8127       1306.8297      3431.8167      4.2646798    
  24155000   297.5945      -577.24453      1237.393       3321.3665      2.1020208    
  24160000   298.05728     -569.16591      1320.7982      3416.9887      5.8537736    
  24165000   303.36701     -543.63618      1275.2368      3444.4389     -2.0652276    
  24170000   304.15951     -562.44944      1311.0089      3468.4847      9.2845353    
  24175000   292.02731     -592.44309      1232.2865      3251.2772      9.6623765    
  24180000   297.10419     -569.66667      1270.4114      3357.5782      0.11102534   
  24185000   300.50271     -564.31727      1277.3521      3400.2593      12.1244      
  24190000   300.45202     -539.18989      1294.1028      3441.684       4.2449339    
  24195000   305.12299     -547.56014      1299.3372      3480.3182      8.2544798    
  24200000   304.54524     -573.98918      1296.65        3446.0353      4.6963614    
  24205000   297.48528     -549.68667      1250.6798      3361.2345      16.757311    
  24210000   307.28497     -599.3096       1239.271       3387.8358      3.4661707    
  24215000   298.50533     -606.63544      1293.9522      3356.6799      4.7615042    
  24220000   298.22968     -573.51433      1260.6635      3354.0473      3.0964641    
  24225000   299.55729     -598.32787      1256.7535      3337.1958      16.707586    
  24230000   308.79138     -568.80326      1229.9484      3422.4905      4.1770392    
  24235000   290.90175     -552.17121      1287.6737      3336.8711      12.035971    
  24240000   302.19653     -565.29864      1286.9939      3424.0666     -8.1149574    
  24245000   304.24928     -539.20379      1305.0367      3486.5608      10.779628    
  24250000   305.65747     -559.62004      1261.5593      3435.2599      11.516847    
  24255000   303.40583     -558.08382      1326.5916      3481.6932      8.4742889    
  24260000   303.46016     -556.57452      1261.3343      3418.4311      12.257759    
  24265000   301.51589     -544.50462      1305.4709      3457.2511      3.5776776    
  24270000   296.41434     -554.47812      1265.3789      3361.5654      16.032234    
  24275000   302.76799     -564.5504       1310.8174      3453.7486     -1.7405333    
  24280000   299.73207     -556.00851      1286.6362      3410.9608     -10.557122    
  24285000   297.963       -568.29238      1243.9316      3340.1525     -2.7079577    
  24290000   291.3223      -563.04491      1257.6843      3299.7687      11.479085    
  24295000   295.58675     -574.30592      1298.2858      3367.2438      5.5002885    
  24300000   298.35668     -574.07639      1236.5967      3330.5541      16.790622    
  24305000   290.31587     -556.77231      1247.9648      3287.3219      1.6082792    
  24310000   298.22841     -551.57366      1273.3519      3388.6649     -2.4506564    
  24315000   301.14053     -544.10976      1232.3757      3381.1941      15.358324    
  24320000   302.19117     -580.30114      1240.282       3362.3044      9.5501597    
  24325000   293.83298     -574.67793      1251.1551      3304.058      -4.1439592    
  24330000   306.46475     -589.98903      1233.6156      3384.1662      4.6227796    
  24335000   300.96036     -575.39256      1248.03        3363.9545      9.575675     
  24340000   306.66431     -581.31411      1265.1027      3426.1128      7.436517     
  24345000   298.41357     -570.63809      1283.2718      3381.1763     -4.5410625    
  24350000   298.61191     -567.00728      1247.5139      3350.8227      10.089746    
  24355000   299.35468     -542.02224      1314.6998      3449.6359     -3.3475058    
  24360000   304.75395     -557.43842      1272.5239      3440.3264     -1.0093402    
  24365000   297.72982     -534.31493      1299.8888      3428.002       1.9983007    
  24370000   301.50903     -533.37181      1218.2828      3381.1345      5.3381201    
  24375000   293.16943     -561.59237      1276.3532      3336.408       13.86588     
  24380000   293.20184     -564.09117      1262.1295      3319.9753      3.5164152    
  24385000   295.87222     -582.05023      1244.0429      3307.8093      4.7711643    
  24390000   304.81847     -556.60275      1272.899       3442.1141      1.6069659    
  24395000   307.79673     -542.43697      1304.9912      3515.005       6.4249454    
  24400000   300.46575     -580.48561      1300.8129      3407.2213      13.894751    
  24405000   297.50871     -597.67847      1274.5345      3337.3069     -5.0897414    
  24410000   300.28877     -536.94853      1239.0575      3387.4203      8.0102661    
  24415000   301.41839     -559.38789      1266.7408      3402.7657      8.2685706    
  24420000   301.6457      -586.00315      1250.0445      3361.487       8.9039012    
  24425000   295.03729     -589.6839       1335.7736      3384.4401      5.8571445    
  24430000   303.93822     -642.47642      1265.2621      3340.732       8.5473954    
  24435000   296.68672     -566.45325      1246.5261      3333.1732      10.543817    
  24440000   304.055       -590.92172      1317.4155      3445.4843      14.962959    
  24445000   296.66261     -576.10264      1256.3208      3333.1029      2.4368549    
  24450000   291.27976     -582.78463      1228.2148      3250.1791     -1.379636     
  24455000   298.69439     -578.00757      1287.154       3380.2002      6.9741378    
  24460000   303.7794      -599.83254      1241.7772      3358.4707     -2.0425142    
  24465000   308.8854      -621.29599      1262.9047      3403.7949      9.3096043    
  24470000   300.15625     -572.79827      1262.2795      3373.6075      3.340996     
  24475000   305.33664     -559.77251      1334.7025      3505.3816      5.3006402    
  24480000   300.38075     -536.09112      1267.1043      3417.147       0.090840201  
  24485000   298.78443     -560.86143      1278.8599      3389.8574     -4.043809     
  24490000   296.8037      -563.15038      1277.6695      3368.6655      10.478474    
  24495000   304.31295     -549.66146      1275.8579      3447.4937      9.8008841    
  24500000   293.1363      -525.3542       1353.3339      3449.3306      4.9431529    
  24505000   307.78397     -575.19734      1244.3454      3421.4847      16.963388    
  24510000   302.48799     -567.72164      1254.6984      3391.9545      18.072613    
  24515000   308.29258     -611.82972      1278.015       3423.0702      17.933127    
  24520000   294.12913     -602.30726      1254.7323      3282.6542      11.4955      
  24525000   302.1743      -578.97836      1276.1337      3399.3279      15.074543    
  24530000   301.96772     -559.85521      1256.8031      3397.2731      14.122197    
  24535000   298.22548     -572.11617      1321.64        3416.3843      14.286132    
  24540000   299.39262     -608.47574      1209.3644      3278.1862      9.4497815    
  24545000   292.73252     -600.1808       1242.8017      3260.3609     -3.5537066    
  24550000   308.91439     -610.0436       1282.4786      3434.8804      15.088604    
  24555000   302.89357     -613.43985      1270.0167      3365.1814      6.8326239    
  24560000   305.20467     -610.57403      1226.2034      3344.9008      0.24953284   
  24565000   287.49551     -580.85892      1258.8845      3248.9341      10.155873    
  24570000   296.37729     -591.60859      1257.8874      3316.612       10.126755    
  24575000   300.12207     -619.64208      1306.0909      3370.2695      11.900319    
  24580000   295.59552     -630.96415      1242.3721      3254.7502      2.6108035    
  24585000   300.37717     -570.86294      1246.0597      3361.2986      6.4011155    
  24590000   294.47226     -553.43675      1271.0336      3350.8945      13.557947    
  24595000   298.67243     -581.77495      1254.355       3343.4374     -2.6580916    
  24600000   298.57456     -536.31313      1321.5932      3455.2622     -6.7109053    
  24605000   295.45175     -573.68388      1279.5325      3347.9052     -1.6979568    
  24610000   300.51149     -571.07041      1216.7205      3332.9531      4.952732     
  24615000   305.7384      -576.22883      1279.632       3437.4474      1.7774968    
  24620000   305.3605      -574.14426      1306.5493      3463.07       -2.9798087    
  24625000   295.21285     -577.13806      1311.401       3374.1833      13.160298    
  24630000   304.61258     -604.72658      1250.9462      3370.1963      11.669877    
  24635000   291.71958     -607.02531      1266.9053      3268.5619      6.1660307    
  24640000   293.80669     -593.18236      1284.1309      3318.2944      10.611626    
  24645000   299.18297     -587.56192      1355.168       3443.0288     -8.6796979    
  24650000   307.00714     -578.92339      1295.2488      3461.7153      2.7924432    
  24655000   295.97614     -597.41251      1268.0015      3317.335      -0.53210997   
  24660000   309.64783     -595.11316      1282.4954      3456.3864      4.6918007    
  24665000   308.25652     -531.77243      1329.5898      3554.3797      1.892084     
  24670000   296.20242     -538.52716      1284.4571      3394.6994     -1.3114265    
  24675000   293.11974     -545.4224       1294.2068      3369.9872      2.9441671    
  24680000   303.0672      -568.09214      1300.7123      3442.7774      7.6908562    
  24685000   303.79365     -565.88486      1275.107       3425.8756      3.0968358    
  24690000   303.83553     -589.44452      1250.9615      3378.545       7.7071484    
  24695000   304.89818     -579.91426      1332.4336      3479.05       -8.0502491    
  24700000   301.46918     -556.63389      1290.2702      3429.5034     -6.0570428    
  24705000   292.10825     -568.84495      1340.6002      3383.9129     -5.502181     
  24710000   301.96066     -578.56543      1284.8028      3406.4994      10.863378    
  24715000   304.47328     -578.29327      1281.9966      3426.4344      9.7371434    
  24720000   295.58616     -579.28272      1288.1591      3352.1349      12.276947    
  24725000   303.24476     -517.31425      1276.0667      3470.4975      11.091476    
  24730000   299.06445     -535.62935      1266.2771      3405.0107      4.4232739    
  24735000   301.53697     -557.1523       1264.5173      3403.8383      12.286336    
  24740000   298.92697     -564.40624      1264.5102      3373.2374      3.3337492    
  24745000   294.06186     -572.91151      1291.559       3348.2752      15.830698    
  24750000   306.02447     -553.33587      1308.5924      3491.859       9.7932994    
  24755000   305.31323     -555.16847      1260.1561      3435.2298      12.091909    
  24760000   298.59218     -564.21787      1316.0666      3421.9885      6.9591608    
  24765000   292.01738     -548.26358      1294.0833      3357.1648     -0.076774246  
  24770000   305.59986     -544.38595      1288.6147      3477.0341      1.9255369    
  24775000   301.27796     -564.38161      1307.5377      3437.3132      9.610568     
  24780000   299.84595     -567.25608      1231.1756      3345.271       9.1884111    
  24785000   303.67152     -561.48238      1257.9872      3412.0662      12.589878    
  24790000   300.02291     -533.64139      1357.2221      3506.5146      1.0124123    
  24795000   303.67281     -558.31524      1283.9323      3441.19       -0.25361627   
  24800000   298.66445     -550.72448      1248.365       3368.4265      6.526286     
  24805000   295.33643     -575.12203      1283.2194      3349.1228      5.0553108    
  24810000   307.88894     -597.0327       1213.2762      3369.5189      18.506506    
  24815000   301.76252     -575.59002      1303.4373      3426.3375      0.73145655   
  24820000   305.16587     -607.63829      1269.0339      3390.32       -6.3522369    
  24825000   304.69488     -584.0141       1319.2954      3459.994       5.6216197    
  24830000   296.54311     -634.07561      1242.1354      3259.8759      7.3717516    
  24835000   301.64687     -599.02265      1240.3279      3338.7613      7.8636455    
  24840000   292.92763     -619.17667      1319.1118      3319.42        9.2983202    
  24845000   296.99179     -597.52619      1244.3182      3302.6203      12.140118    
  24850000   302.17456     -573.06884      1320.0839      3449.19        25.538474    
  24855000   305.3049      -586.51603      1256.3319      3399.9836      19.759338    
  24860000   304.43838     -602.70959      1309.0824      3428.7917     -5.8741571    
  24865000   302.57233     -592.13932      1319.2877      3432.8804      2.8154249    
  24870000   300.94097     -562.24163      1322.3506      3451.2526      4.743715     
  24875000   301.48695     -580.97603      1257.4643      3372.5143      13.189387    
  24880000   298.78424     -575.89447      1250.0198      3345.9825      7.9165483    
  24885000   295.36568     -565.81621      1296.7681      3372.2389     -3.1796015    
  24890000   301.18491     -573.76864      1261.0432      3380.5997      10.461959    
  24895000   295.02479     -565.77496      1237.3435      3309.8071      7.1783793    
  24900000   301.04262     -571.81941      1271.9464      3392.1796      23.437392    
  24905000   295.83982     -620.2848       1286.6261      3311.8682     -3.4956005    
  24910000   298.34655     -582.14382      1246.7507      3332.5501      11.925389    
  24915000   300.36139     -597.50358      1257.6154      3346.0726     -1.417365     
  24920000   303.76753     -590.35546      1295.3771      3421.4415      2.2156558    
  24925000   296.67632     -603.72928      1283.3282      3332.6062      10.297756    
  24930000   298.34811     -583.26496      1264.7041      3349.3963      5.0528455    
  24935000   292.929       -568.55581      1242.2489      3293.1901     -0.34947638   
  24940000   297.95986     -559.57348      1275.909       3380.8207      11.991954    
  24945000   299.46034     -533.84706      1335.7172      3479.7733      7.9992813    
  24950000   297.1023      -549.87794      1273.2248      3380.1633      14.490596    
  24955000   302.59529     -515.62331      1302.3255      3492.6395      2.1573847    
  24960000   307.40913     -516.19635      1267.2206      3500.0088      1.0300703    
  24965000   303.05495     -534.08885      1270.8213      3446.7802     -0.55047714   
  24970000   300.8259      -508.64419      1288.2931      3469.7636      5.2717542    
  24975000   300.70013     -547.10849      1296.2996      3438.181       4.7205781    
  24980000   301.30669     -587.14979      1244.9165      3352.1807     -2.2534671    
  24985000   299.39955     -555.98173      1320.3331      3441.711       3.8531904    
  24990000   301.72197     -545.22012      1241.3071      3394.2146      8.0027138    
  24995000   299.26999     -585.1204       1323.9929      3415.0734      9.825539     
  25000000   305.63851     -562.19064      1257.1119      3428.0722     -1.2137154    
  25005000   303.88448     -603.84034      1291.1535      3404.7789      9.4185623    
  25010000   306.99796     -606.34893      1247.9235      3386.8824      3.4261161    
Loop time of 10298.5 on 64 procs for 25000000 steps with 3001 atoms

Performance: 6292.166 ns/day, 0.004 hours/ns, 2427.533 timesteps/s
99.6% CPU use with 64 MPI tasks x 1 OpenMP threads

MPI task timing breakdown:
Section |  min time  |  avg time  |  max time  |%varavg| %total
---------------------------------------------------------------
Pair    | 78.918     | 129.73     | 458.96     | 895.2 |  1.26
Bond    | 46.117     | 52.932     | 94.389     | 212.8 |  0.51
Neigh   | 1676.1     | 1711.7     | 1756.3     |  47.1 | 16.62
Comm    | 7773       | 8216.2     | 8305.4     | 161.8 | 79.78
Output  | 16.606     | 16.644     | 16.7       |   0.5 |  0.16
Modify  | 75.535     | 86.34      | 151.29     | 256.4 |  0.84
Other   |            | 84.93      |            |       |  0.82

Nlocal:        46.8906 ave          99 max          24 min
Histogram: 8 14 19 11 4 1 0 2 2 3
Nghost:        3419.11 ave        3550 max        3301 min
Histogram: 4 4 3 9 17 10 6 8 1 2
Neighs:        313.281 ave        1197 max          92 min
Histogram: 27 24 4 1 1 0 0 1 2 4
FullNghs:      626.562 ave        2421 max         211 min
Histogram: 32 20 4 0 0 1 0 3 0 4

Total # of neighbors = 40100
Ave neighs/atom = 13.362213
Ave special neighs/atom = 3.5988004
Neighbor list builds = 2500000
Dangerous builds = 2499990
Total wall time: 2:51:42
